# vtk DataFile Version 4.0
vtk output
ASCII
DATASET UNSTRUCTURED_GRID
POINTS 2292 float
-3.3000001e-01 2.3000000e-01 1.5000001e-01 
-3.2022592e-01 2.3000000e-01 1.5000001e-01 
-3.2959926e-01 2.1980032e-01 1.5000001e-01 
-3.3000001e-01 2.3000000e-01 1.3766479e-01 
-3.1513196e-01 2.1941945e-01 1.5000001e-01 
-3.1513196e-01 2.3000000e-01 1.3941945e-01 
-3.1003797e-01 2.3000000e-01 1.5000001e-01 
-3.2839948e-01 2.0966353e-01 1.5000001e-01 
-3.2916763e-01 2.1531247e-01 1.3357294e-01 
-3.1700656e-01 2.0672596e-01 1.5000001e-01 
-3.3000001e-01 2.3000000e-01 1.2224095e-01 
-3.2750273e-01 2.0464146e-01 1.3895091e-01 
-3.0979449e-01 2.1832360e-01 1.3214862e-01 
-2.9976296e-01 2.3000000e-01 1.5000001e-01 
-3.0251393e-01 2.3000000e-01 1.3724451e-01 
-3.2640809e-01 1.9965211e-01 1.5000001e-01 
-3.1015068e-01 2.3000000e-01 1.2415913e-01 
-3.1509244e-01 2.0318303e-01 1.3509549e-01 
-2.9892233e-01 2.1319242e-01 1.5000001e-01 
-3.1481981e-01 1.9761747e-01 1.5000001e-01 
-3.2539150e-01 1.9569302e-01 1.4019629e-01 
-3.1604785e-01 2.0947991e-01 1.1925406e-01 
-2.8999999e-01 2.3000000e-01 1.5000001e-01 
-3.2895601e-01 2.1355774e-01 1.1306911e-01 
-3.1444788e-01 1.9341704e-01 1.4166841e-01 
-3.2363734e-01 1.8982778e-01 1.5000001e-01 
-3.2640472e-01 1.9963804e-01 1.2308473e-01 
-3.0115271e-01 2.0115629e-01 1.5000001e-01 
-3.0166581e-01 2.0991260e-01 1.2772837e-01 
-2.8943411e-01 2.1992320e-01 1.5000001e-01 
-2.8999999e-01 2.3000000e-01 1.3768360e-01 
-2.9873130e-01 2.1887256e-01 1.2187483e-01 
-3.1192514e-01 1.8870863e-01 1.5000001e-01 
-2.8872949e-01 2.1493094e-01 1.3905872e-01 
-3.3000001e-01 2.3000000e-01 1.0389727e-01 
-2.8774351e-01 2.0997311e-01 1.5000001e-01 
-3.2196450e-01 1.8500379e-01 1.3894582e-01 
-3.1208250e-01 1.9561113e-01 1.2312642e-01 
-2.8999999e-01 2.3000000e-01 1.2220488e-01 
-2.9446238e-01 1.9653527e-01 1.4290576e-01 
-3.1289464e-01 2.2518840e-01 1.0335004e-01 
-3.2010433e-01 1.8025115e-01 1.5000001e-01 
-2.8648251e-01 2.0508467e-01 1.3908413e-01 
-2.9656273e-01 1.9000241e-01 1.5000001e-01 
-3.0049533e-01 2.0493023e-01 1.1454406e-01 
-3.0482483e-01 1.8569355e-01 1.3703163e-01 
-3.1097603e-01 2.1146932e-01 1.0364468e-01 
-2.8773671e-01 2.0994335e-01 1.2337358e-01 
-2.8494951e-01 2.0027488e-01 1.5000001e-01 
-3.0834043e-01 1.8005438e-01 1.5000001e-01 
-2.9291257e-01 2.0245014e-01 1.1982420e-01 
-3.1846678e-01 1.7646852e-01 1.4007114e-01 
-3.0764920e-01 1.7866920e-01 1.4074820e-01 
-3.2013869e-01 1.8033418e-01 1.2301441e-01 
-2.8948691e-01 1.9546689e-01 1.2858038e-01 
-3.2587421e-01 1.9750866e-01 1.0262766e-01 
-3.2902268e-01 2.1408930e-01 9.3161412e-02 
-3.1005022e-01 2.3000000e-01 9.4123319e-02 
-2.8277957e-01 1.9467944e-01 1.4013284e-01 
-2.8956729e-01 1.8594603e-01 1.4233300e-01 
-3.1583086e-01 1.7098123e-01 1.5000001e-01 
-2.8999999e-01 2.3000000e-01 1.0376693e-01 
-2.8108719e-01 1.9095047e-01 1.5000001e-01 
-2.9192135e-01 1.7886981e-01 1.5000001e-01 
-3.0566823e-01 1.8557455e-01 1.1125257e-01 
-3.0408776e-01 1.7170805e-01 1.5000001e-01 
-2.9409245e-01 1.8686911e-01 1.1688749e-01 
-3.3000001e-01 2.3000000e-01 8.3611883e-02 
-3.1333062e-01 1.6631193e-01 1.3839544e-01 
-2.8054678e-01 1.8984762e-01 1.2646526e-01 
-2.7867925e-01 1.8630134e-01 1.3854522e-01 
-2.8860578e-01 1.7783616e-01 1.3378845e-01 
-3.1094754e-01 2.2183405e-01 8.3727360e-02 
-3.0339852e-01 1.6982168e-01 1.2775949e-01 
-3.0213130e-01 2.1770041e-01 8.7432668e-02 
-3.0311102e-01 1.6552749e-01 1.4171912e-01 
-3.2073689e-01 2.1299580e-01 8.2342058e-02 
-3.1084323e-01 1.6207519e-01 1.5000001e-01 
-2.8864664e-01 2.1445087e-01 9.4650969e-02 
-2.8445858e-01 1.9890743e-01 1.0552534e-01 
-2.7620518e-01 1.8211712e-01 1.5000001e-01 
-2.9919335e-01 1.6372111e-01 1.5000001e-01 
-3.2601598e-01 1.9806299e-01 8.2626805e-02 
-2.8183341e-01 1.7193609e-01 1.5000001e-01 
-3.1670326e-01 1.7272568e-01 1.0127340e-01 
-3.0812073e-01 1.5782030e-01 1.3792235e-01 
-2.8848341e-01 1.6571303e-01 1.4268254e-01 
-3.0207080e-01 2.0901792e-01 8.0923222e-02 
-3.0463850e-01 1.6995333e-01 1.0802369e-01 
-2.8999999e-01 2.3000000e-01 8.3463810e-02 
-2.9895061e-01 1.8706848e-01 9.3171932e-02 
-2.7344224e-01 1.7797847e-01 1.3822471e-01 
-2.9876652e-01 1.5735987e-01 1.3793756e-01 
-3.0517220e-01 1.5358792e-01 1.5000001e-01 
-3.1472573e-01 1.8774016e-01 8.2899578e-02 
-3.0862203e-01 2.2301097e-01 7.2422855e-02 
-3.0801263e-01 1.5765865e-01 1.2130406e-01 
-3.2053468e-01 2.2136708e-01 6.9634534e-02 
-2.7036482e-01 1.7388591e-01 1.5000001e-01 
-2.8707799e-01 1.6767450e-01 1.1814857e-01 
-2.9368740e-01 1.5614280e-01 1.5000001e-01 
-2.8037348e-01 1.6568656e-01 1.3331129e-01 
-3.1384030e-01 2.0238480e-01 7.3349498e-02 
-3.3000001e-01 2.3000000e-01 6.6302046e-02 
-3.2011983e-01 1.8028858e-01 8.3318822e-02 
-2.8412625e-01 1.9801918e-01 8.5547976e-02 
-3.2839093e-01 2.0960957e-01 6.6961236e-02 
-3.0211756e-01 1.4955121e-01 1.3838275e-01 
-2.7797571e-01 1.6158202e-01 1.5000001e-01 
-2.8977165e-01 1.5452988e-01 1.3828704e-01 
-2.9545444e-01 1.5476784e-01 1.2512764e-01 
-3.1015068e-01 2.3000000e-01 6.5840863e-02 
-2.6992995e-01 1.7334487e-01 1.2252384e-01 
-2.8848806e-01 2.1357256e-01 7.4820355e-02 
-2.6714885e-01 1.7007478e-01 1.3884772e-01 
-2.9795086e-01 1.9386622e-01 7.6502644e-02 
-2.7421451e-01 1.7908625e-01 1.0431241e-01 
-3.0766866e-01 1.5714768e-01 1.0252115e-01 
-3.0389559e-01 2.0804694e-01 6.6812523e-02 
-2.9885277e-01 1.4557175e-01 1.5000001e-01 
-2.9220781e-01 1.7010602e-01 9.2975892e-02 
-2.8760383e-01 1.4901985e-01 1.5000001e-01 
-2.6363960e-01 1.6636039e-01 1.5000001e-01 
-2.7079213e-01 1.5926088e-01 1.4260085e-01 
-2.8999999e-01 2.3000000e-01 6.6176899e-02 
-3.2424563e-01 1.9175050e-01 6.4770482e-02 
-2.7674961e-01 1.5667112e-01 1.2650447e-01 
-3.0124694e-01 1.7652458e-01 7.8509554e-02 
-2.8474602e-01 1.8300661e-01 8.2458690e-02 
-3.0713582e-01 1.8771110e-01 6.8707980e-02 
-2.9449436e-01 1.5936087e-01 9.7822085e-02 
-3.1182176e-01 1.6369845e-01 8.4636509e-02 
-2.9548675e-01 1.4178276e-01 1.3882054e-01 
-3.0926552e-01 2.1681209e-01 5.6272436e-02 
-2.7631143e-01 1.6454495e-01 1.0234362e-01 
-2.6000968e-01 1.6292661e-01 1.3935205e-01 
-2.7072522e-01 1.5214707e-01 1.5000001e-01 
-3.3000001e-01 2.3000000e-01 5.1849142e-02 
-2.8470203e-01 1.5181077e-01 1.1073287e-01 
-2.7421451e-01 1.7908625e-01 8.5687585e-02 
-2.8497028e-01 2.0033434e-01 6.6638879e-02 
-2.9192388e-01 1.3807611e-01 1.5000001e-01 
-2.9408008e-01 1.4028412e-01 1.2523377e-01 
-3.2909974e-01 2.1472730e-01 5.1094692e-02 
-2.8098014e-01 1.4239617e-01 1.5000001e-01 
-3.1513196e-01 2.3000000e-01 5.0580554e-02 
-3.0251393e-01 2.3000000e-01 5.2395888e-02 
-2.5611410e-01 1.5963517e-01 1.5000001e-01 
-3.2750273e-01 2.0464146e-01 5.1049091e-02 
-2.9732674e-01 1.4381702e-01 1.0549390e-01 
-2.5786453e-01 1.6106746e-01 1.2615721e-01 
-3.0741808e-01 2.0569554e-01 5.2913915e-02 
-2.7518752e-01 1.4361861e-01 1.3818376e-01 
-2.6242864e-01 1.6517204e-01 1.0703400e-01 
-3.1897402e-01 2.0231266e-01 5.0812148e-02 
-2.8882194e-01 2.1548577e-01 5.5761285e-02 
-2.6392177e-01 1.5111992e-01 1.3519159e-01 
-2.8827211e-01 1.3456398e-01 1.3916987e-01 
-3.2511908e-01 1.9471242e-01 5.1037069e-02 
-3.1581393e-01 1.7094803e-01 6.3250452e-02 
-2.8999999e-01 2.3000000e-01 5.1777005e-02 
-2.5211462e-01 1.5662380e-01 1.3976513e-01 
-2.8816649e-01 1.6267867e-01 7.7368103e-02 
-3.1679410e-01 1.9205129e-01 4.9801871e-02 
-2.8442824e-01 1.3114722e-01 1.5000001e-01 
-2.5806391e-01 1.4816658e-01 1.5000001e-01 
-3.2196450e-01 1.8500379e-01 5.1054191e-02 
-2.7385721e-01 1.3631259e-01 1.5000001e-01 
-2.6126188e-01 1.5263386e-01 1.1480499e-01 
-3.3000001e-01 2.3000000e-01 3.9999999e-02 
-3.2022592e-01 2.3000000e-01 3.9999999e-02 
-3.2959926e-01 2.1980032e-01 3.9999999e-02 
-2.6866496e-01 1.4180468e-01 1.2206174e-01 
-2.8648251e-01 2.0508467e-01 5.0915867e-02 
-2.9316863e-01 1.7721388e-01 5.9231233e-02 
-3.1513196e-01 2.1941945e-01 3.9999999e-02 
-3.1003797e-01 2.3000000e-01 3.9999999e-02 
-3.2839948e-01 2.0966353e-01 3.9999999e-02 
-2.8431693e-01 1.4458171e-01 9.3730062e-02 
-2.4788289e-01 1.5379483e-01 1.5000001e-01 
-2.9732674e-01 1.4381702e-01 8.4506094e-02 
-3.1700656e-01 2.0672596e-01 3.9999999e-02 
-2.9462194e-01 1.9791605e-01 4.7306526e-02 
-3.0330896e-01 1.7516571e-01 5.4542687e-02 
-2.7018258e-01 1.3477273e-01 1.3510144e-01 
-2.8050944e-01 1.2793027e-01 1.3947697e-01 
-2.9976296e-01 2.3000000e-01 3.9999999e-02 
-3.2640809e-01 1.9965211e-01 3.9999999e-02 
-2.6113418e-01 1.5406667e-01 9.9387132e-02 
-3.1127688e-01 1.8174483e-01 4.7915012e-02 
-2.7563766e-01 1.4923491e-01 8.9496717e-02 
-3.0487451e-01 1.5317982e-01 6.8540394e-02 
-3.1765124e-01 1.7469914e-01 5.0000984e-02 
-2.6242864e-01 1.6517204e-01 8.2966000e-02 
-2.7212742e-01 1.4093079e-01 1.0535167e-01 
-2.8351372e-01 1.9645213e-01 4.9801905e-02 
-2.9892233e-01 2.1319242e-01 3.9999999e-02 
-3.1481981e-01 1.9761747e-01 3.9999999e-02 
-2.7221370e-01 1.7628609e-01 6.4974628e-02 
-2.8951529e-01 1.8608059e-01 5.0173044e-02 
-2.8725299e-01 1.5052415e-01 7.6456815e-02 
-2.8999999e-01 2.3000000e-01 3.9999999e-02 
-3.2363734e-01 1.8982778e-01 3.9999999e-02 
-3.0115271e-01 2.0115629e-01 3.9999999e-02 
-2.4356532e-01 1.5124683e-01 1.4009312e-01 
-2.8943411e-01 2.1992320e-01 3.9999999e-02 
-2.6627889e-01 1.3080664e-01 1.5000001e-01 
-2.8355184e-01 1.3040538e-01 1.0716549e-01 
-2.7641207e-01 1.2482779e-01 1.5000001e-01 
-2.5839370e-01 1.3698389e-01 1.3689989e-01 
-2.9357299e-01 1.6053921e-01 6.1557382e-02 
-2.7831578e-01 1.2623759e-01 1.2629975e-01 
-3.1333062e-01 1.6631193e-01 5.1604554e-02 
-3.1192514e-01 1.8870863e-01 3.9999999e-02 
-2.7867925e-01 1.8630134e-01 5.1454779e-02 
-2.8774351e-01 2.0997311e-01 3.9999999e-02 
-2.7602735e-01 1.5764405e-01 6.9591820e-02 
-2.4648438e-01 1.5293378e-01 1.0830743e-01 
-2.5113019e-01 1.3807864e-01 1.5000001e-01 
-3.2010433e-01 1.8025115e-01 3.9999999e-02 
-3.0357057e-01 1.6690873e-01 4.9866688e-02 
-2.9656273e-01 1.9000241e-01 3.9999999e-02 
-2.4105550e-01 1.4990976e-01 1.2727024e-01 
-2.3904954e-01 1.4891280e-01 1.5000001e-01 
-2.8494951e-01 2.0027488e-01 3.9999999e-02 
-3.0834043e-01 1.8005438e-01 3.9999999e-02 
-2.7224690e-01 1.2192415e-01 1.3973662e-01 
-2.8013617e-01 1.6745970e-01 5.5885252e-02 
-3.0812073e-01 1.5782030e-01 5.2077655e-02 
-2.7344224e-01 1.7797847e-01 5.1775288e-02 
-2.4317977e-01 1.4038248e-01 1.4333777e-01 
-3.1583086e-01 1.7098123e-01 3.9999999e-02 
-2.5829196e-01 1.2591223e-01 1.5000001e-01 
-2.8545874e-01 1.5666279e-01 5.7080019e-02 
-2.8108719e-01 1.9095047e-01 3.9999999e-02 
-2.3446515e-01 1.4686064e-01 1.4033651e-01 
-2.6792482e-01 1.1915678e-01 1.5000001e-01 
-2.9192135e-01 1.7886981e-01 3.9999999e-02 
-3.0408776e-01 1.7170805e-01 3.9999999e-02 
-2.9935101e-01 1.5781727e-01 4.9801871e-02 
-2.5011712e-01 1.3365249e-01 1.2446686e-01 
-2.8848341e-01 1.6571303e-01 4.7317460e-02 
-2.4713378e-01 1.4122248e-01 1.0792790e-01 
-2.8355184e-01 1.3040538e-01 8.2834519e-02 
-2.6133397e-01 1.3800940e-01 9.0946123e-02 
-2.9349825e-01 1.3967791e-01 6.4744011e-02 
-3.0211756e-01 1.4955121e-01 5.1617246e-02 
-2.5449148e-01 1.2482021e-01 1.3565558e-01 
-3.1084323e-01 1.6207519e-01 3.9999999e-02 
-2.7548495e-01 1.3908690e-01 7.3348686e-02 
-2.2972512e-01 1.4505050e-01 1.5000001e-01 
-2.7620518e-01 1.8211712e-01 3.9999999e-02 
-2.6714885e-01 1.7007478e-01 5.1152270e-02 
-2.5804916e-01 1.6122285e-01 6.3620813e-02 
-2.6354071e-01 1.1658670e-01 1.3997272e-01 
-2.3999760e-01 1.3343728e-01 1.5000001e-01 
-2.9919335e-01 1.6372111e-01 3.9999999e-02 
-2.4464633e-01 1.4561196e-01 9.3934976e-02 
-2.4648438e-01 1.5293378e-01 8.1692576e-02 
-2.8183341e-01 1.7193609e-01 3.9999999e-02 
-2.4994563e-01 1.2165957e-01 1.5000001e-01 
-2.6693457e-01 1.1855602e-01 1.0807180e-01 
-2.8875077e-01 1.5110055e-01 4.8588421e-02 
-2.6841256e-01 1.4343745e-01 6.6622198e-02 
-2.3867945e-01 1.4245655e-01 1.0239458e-01 
-2.3283021e-01 1.3621858e-01 1.4348140e-01 
-2.3169379e-01 1.3886349e-01 1.3065122e-01 
-2.6112059e-01 1.1526433e-01 1.2704846e-01 
-2.5901878e-01 1.1416915e-01 1.5000001e-01 
-3.0517220e-01 1.5358792e-01 3.9999999e-02 
-2.2493178e-01 1.4352222e-01 1.4052823e-01 
-2.5958499e-01 1.3766994e-01 7.8317955e-02 
-2.4290839e-01 1.2582217e-01 1.3631278e-01 
-2.9548675e-01 1.4178276e-01 5.1179454e-02 
-2.7036482e-01 1.7388591e-01 3.9999999e-02 
-2.9368740e-01 1.5614280e-01 3.9999999e-02 
-2.7079213e-01 1.5926088e-01 4.7399152e-02 
-2.2878997e-01 1.4472903e-01 1.0941308e-01 
-2.6000968e-01 1.6292661e-01 5.0647944e-02 
-2.7797571e-01 1.6158202e-01 3.9999999e-02 
-2.6391900e-01 1.5125199e-01 5.4739065e-02 
-2.5444549e-01 1.1195049e-01 1.4015524e-01 
-2.2201499e-01 1.4273408e-01 1.2812401e-01 
-2.2002688e-01 1.4225648e-01 1.5000001e-01 
-2.4477558e-01 1.2948905e-01 9.7705573e-02 
-2.7518752e-01 1.4361861e-01 5.1816236e-02 
-2.9885277e-01 1.4557175e-01 3.9999999e-02 
-2.4129136e-01 1.1807486e-01 1.5000001e-01 
-2.8760383e-01 1.4901985e-01 3.9999999e-02 
-2.2884372e-01 1.2884729e-01 1.5000001e-01 
-2.6363960e-01 1.6636039e-01 3.9999999e-02 
-2.8827211e-01 1.3456398e-01 5.0830126e-02 
-2.2248231e-01 1.3380361e-01 1.4390357e-01 
-2.4974884e-01 1.0989566e-01 1.5000001e-01 
-2.7831578e-01 1.2623759e-01 6.3700244e-02 
-2.5107029e-01 1.4531659e-01 6.2906101e-02 
-2.6693457e-01 1.1855602e-01 8.1928201e-02 
-2.1508716e-01 1.4127359e-01 1.4064327e-01 
-2.3807605e-01 1.2129164e-01 1.1880154e-01 
-2.5211462e-01 1.5662380e-01 5.0234877e-02 
-2.3004667e-01 1.3886198e-01 9.3519680e-02 
-2.7072522e-01 1.5214707e-01 3.9999999e-02 
-2.7018258e-01 1.3477273e-01 5.4898560e-02 
-2.2885165e-01 1.3082801e-01 1.0703354e-01 
-2.2927198e-01 1.2193954e-01 1.3722019e-01 
-2.9192388e-01 1.3807611e-01 3.9999999e-02 
-2.5011432e-01 1.2322604e-01 8.4095307e-02 
-2.8098014e-01 1.4239617e-01 3.9999999e-02 
-2.4501202e-01 1.0804132e-01 1.4030746e-01 
-2.2878997e-01 1.4472903e-01 8.0586925e-02 
-2.4303132e-01 1.3529249e-01 7.3641628e-02 
-2.3875868e-01 1.4877337e-01 6.3677430e-02 
-2.1007681e-01 1.4056590e-01 1.5000001e-01 
-2.5611410e-01 1.5963517e-01 3.9999999e-02 
-2.1680759e-01 1.3107766e-01 1.5000001e-01 
-2.3238254e-01 1.1518020e-01 1.5000001e-01 
-2.4899033e-01 1.0958427e-01 1.0893279e-01 
-2.8050944e-01 1.2793027e-01 5.0523024e-02 
-2.5743809e-01 1.3765483e-01 5.3658642e-02 
-2.4243373e-01 1.0712047e-01 1.2761782e-01 
-2.4017221e-01 1.0636266e-01 1.5000001e-01 
-2.3836982e-01 1.2666778e-01 8.2300738e-02 
-2.3444140e-01 1.1572273e-01 1.0903767e-01 
-2.8442824e-01 1.3114722e-01 3.9999999e-02 
-2.5806391e-01 1.4816658e-01 3.9999999e-02 
-2.0404774e-01 1.4009108e-01 1.4173503e-01 
-2.7385721e-01 1.3631259e-01 3.9999999e-02 
-2.0981173e-01 1.4053643e-01 1.0990100e-01 
-2.4267305e-01 1.5075980e-01 4.8715159e-02 
-2.5231215e-01 1.2449869e-01 6.6221640e-02 
-2.1427284e-01 1.2574311e-01 1.3674478e-01 
-2.4788289e-01 1.5379483e-01 3.9999999e-02 
-2.3530042e-01 1.0488454e-01 1.4042699e-01 
-2.1841925e-01 1.2138265e-01 1.2510440e-01 
-2.7224690e-01 1.2192415e-01 5.0263375e-02 
-2.0000000e-01 1.4000000e-01 1.5000001e-01 
-2.2327405e-01 1.1299345e-01 1.5000001e-01 
-2.3602419e-01 1.3485800e-01 6.4257659e-02 
-1.9987443e-01 1.4000009e-01 1.2972344e-01 
-2.6112059e-01 1.1526433e-01 6.2951542e-02 
-2.1651585e-01 1.3229632e-01 9.3756206e-02 
-2.0666067e-01 1.2729710e-01 1.5000001e-01 
-2.4899033e-01 1.0958427e-01 8.1067204e-02 
-2.3034790e-01 1.0359191e-01 1.5000001e-01 
-2.5449148e-01 1.2482021e-01 5.4344423e-02 
-2.2168861e-01 1.1158984e-01 1.3694581e-01 
-2.6627889e-01 1.3080664e-01 3.9999999e-02 
-2.7641207e-01 1.2482779e-01 3.9999999e-02 
-2.2788331e-01 1.1849349e-01 9.3412235e-02 
-2.3446515e-01 1.4686064e-01 4.9663488e-02 
-2.1127722e-01 1.4070933e-01 8.6138353e-02 
-1.9494969e-01 1.4014181e-01 1.4070177e-01 
-1.9966707e-01 1.3273700e-01 1.4188682e-01 
-2.4004152e-01 1.4113788e-01 4.6744805e-02 
-2.5113019e-01 1.3807864e-01 3.9999999e-02 
-2.3904954e-01 1.4891280e-01 3.9999999e-02 
-2.6354071e-01 1.1658670e-01 5.0027281e-02 
-2.2537124e-01 1.0249981e-01 1.4051630e-01 
-2.1799356e-01 1.1615635e-01 1.0710519e-01 
-2.1987100e-01 1.4222105e-01 6.2868908e-02 
-2.1402207e-01 1.1152808e-01 1.5000001e-01 
-2.4401452e-01 1.2930261e-01 5.0160762e-02 
-1.8992320e-01 1.4056590e-01 1.5000001e-01 
-2.2987425e-01 1.0347914e-01 1.0946585e-01 
-2.0000000e-01 1.4000000e-01 9.7429708e-02 
-2.0170058e-01 1.2789318e-01 1.1874488e-01 
-2.5829196e-01 1.2591223e-01 3.9999999e-02 
-2.1828192e-01 1.2629355e-01 7.9414926e-02 
-2.6792482e-01 1.1915678e-01 3.9999999e-02 
-1.9437389e-01 1.2981781e-01 1.5000001e-01 
-2.2242764e-01 1.0194922e-01 1.2812743e-01 
-2.2033648e-01 1.0160051e-01 1.5000001e-01 
-1.8491283e-01 1.4127359e-01 1.4064327e-01 
-2.2396040e-01 1.4324807e-01 4.8377827e-02 
-2.3250496e-01 1.3591209e-01 4.6194956e-02 
-1.9018826e-01 1.4053643e-01 1.0990100e-01 
-2.2972512e-01 1.4505050e-01 3.9999999e-02 
-2.3999760e-01 1.3343728e-01 3.9999999e-02 
-2.5444549e-01 1.1195049e-01 4.9844757e-02 
-1.8888402e-01 1.3138965e-01 1.4363985e-01 
-2.0000000e-01 1.2546428e-01 1.0638452e-01 
-1.9020309e-01 1.3024874e-01 1.3206701e-01 
-2.2896160e-01 1.1576699e-01 6.8905033e-02 
-2.0468365e-01 1.1079313e-01 1.5000001e-01 
-2.1528573e-01 1.0090180e-01 1.4057444e-01 
-1.7997311e-01 1.4225648e-01 1.5000001e-01 
-2.4994563e-01 1.2165957e-01 3.9999999e-02 
-2.4243373e-01 1.0712047e-01 6.2382177e-02 
-2.5901878e-01 1.1416915e-01 3.9999999e-02 
-2.2827749e-01 1.2426356e-01 5.3414579e-02 
-2.2987425e-01 1.0347914e-01 8.0534145e-02 
-2.3665471e-01 1.1600499e-01 5.3301670e-02 
-2.1019968e-01 1.0040075e-01 1.5000001e-01 
-2.1166372e-01 1.1331757e-01 9.0263173e-02 
-2.1508716e-01 1.4127359e-01 4.9356736e-02 
-1.7795075e-01 1.4274274e-01 1.2812401e-01 
-1.9279635e-01 1.1817435e-01 1.4331961e-01 
-2.0095885e-01 1.2705982e-01 8.5021585e-02 
-1.7506821e-01 1.4352222e-01 1.4052823e-01 
-2.2158481e-01 1.3380615e-01 4.6023071e-02 
-2.2002688e-01 1.4225648e-01 3.9999999e-02 
-1.8302172e-01 1.2766817e-01 1.5000001e-01 
-2.4501202e-01 1.0804132e-01 4.9692545e-02 
-1.9531634e-01 1.1079313e-01 1.5000001e-01 
-1.9018826e-01 1.4053643e-01 8.0099002e-02 
-2.4129136e-01 1.1807486e-01 3.9999999e-02 
-1.7789888e-01 1.3321167e-01 1.4358270e-01 
-2.2884372e-01 1.2884729e-01 3.9999999e-02 
-2.0000000e-01 1.4000000e-01 6.2669851e-02 
-1.7027488e-01 1.4505050e-01 1.5000001e-01 
-2.1006711e-01 1.0039038e-01 1.0970665e-01 
-2.0408832e-01 1.0006430e-01 1.4165369e-01 
-2.4974884e-01 1.0989566e-01 3.9999999e-02 
-1.9551712e-01 1.0763040e-01 1.3814716e-01 
-1.8565017e-01 1.3010231e-01 9.6080199e-02 
-2.0000000e-01 1.0000000e-01 1.5000001e-01 
-1.6553485e-01 1.4686064e-01 1.4033651e-01 
-1.7121002e-01 1.4472903e-01 1.0941308e-01 
-1.9987270e-01 1.0000006e-01 1.2960015e-01 
-2.1288435e-01 1.2742542e-01 4.9745686e-02 
-2.0404774e-01 1.4009108e-01 4.8264962e-02 
-2.0331737e-01 1.2357893e-01 6.6613071e-02 
-2.1007681e-01 1.4056590e-01 3.9999999e-02 
-2.1091653e-01 1.1226580e-01 6.9096476e-02 
-2.1680759e-01 1.3107766e-01 3.9999999e-02 
-2.3530042e-01 1.0488454e-01 4.9573004e-02 
-1.8597792e-01 1.1152808e-01 1.5000001e-01 
-2.3238254e-01 1.1518020e-01 3.9999999e-02 
-2.1183659e-01 1.0053999e-01 8.5700020e-02 
-1.8227996e-01 1.1918651e-01 1.2178114e-01 
-1.7657800e-01 1.2811613e-01 1.1542239e-01 
-1.6095047e-01 1.4891280e-01 1.5000001e-01 
-1.9489425e-01 1.0010030e-01 1.4060348e-01 
-1.6652896e-01 1.3978644e-01 1.2968649e-01 
-2.1928652e-01 1.1277313e-01 5.3668514e-02 
-2.4017221e-01 1.0636266e-01 3.9999999e-02 
-1.7115629e-01 1.2884729e-01 1.5000001e-01 
-1.9836628e-01 1.3355798e-01 5.5761006e-02 
-2.2242764e-01 1.0194922e-01 6.1872572e-02 
-1.8036166e-01 1.1517760e-01 1.3712054e-01 
-1.8812117e-01 1.1321951e-01 1.0307025e-01 
-1.5894020e-01 1.4991197e-01 1.2727024e-01 
-1.6570430e-01 1.3384300e-01 1.4238290e-01 
-1.7207018e-01 1.2362719e-01 1.3808154e-01 
-1.5643468e-01 1.5124683e-01 1.4009312e-01 
-1.8980032e-01 1.0040075e-01 1.5000001e-01 
-1.9575168e-01 1.4010033e-01 4.8058309e-02 
-2.0000000e-01 1.0000000e-01 9.7627699e-02 
-2.0144521e-01 1.3339999e-01 4.4703826e-02 
-1.6160153e-01 1.3729788e-01 1.5000001e-01 
-2.0000000e-01 1.4000000e-01 3.9999999e-02 
-2.2327405e-01 1.1299345e-01 3.9999999e-02 
-1.7672595e-01 1.1299345e-01 1.5000001e-01 
-1.7121002e-01 1.4472903e-01 8.0586925e-02 
-2.2537124e-01 1.0249981e-01 4.9483709e-02 
-1.5211712e-01 1.5379483e-01 1.5000001e-01 
-1.8012899e-01 1.4222105e-01 6.2868908e-02 
-1.8651792e-01 1.3040617e-01 6.4577118e-02 
-2.0666067e-01 1.2729710e-01 3.9999999e-02 
-1.8471427e-01 1.0090180e-01 1.4057444e-01 
-1.7787765e-01 1.3125247e-01 7.9329826e-02 
-2.3034790e-01 1.0359191e-01 3.9999999e-02 
-1.8993290e-01 1.0039038e-01 1.0970665e-01 
-1.5682024e-01 1.4038248e-01 1.4333777e-01 
-1.4788538e-01 1.5662380e-01 1.3976513e-01 
-1.5351561e-01 1.5293378e-01 1.0830743e-01 
-1.7173257e-01 1.2107398e-01 1.0594089e-01 
-1.9154726e-01 1.2819235e-01 5.3337008e-02 
-1.8491283e-01 1.4127359e-01 4.9356736e-02 
-1.7966352e-01 1.0160051e-01 1.5000001e-01 
-1.6761747e-01 1.1518020e-01 1.5000001e-01 
-2.1402207e-01 1.1152808e-01 3.9999999e-02 
-1.4388593e-01 1.5963517e-01 1.5000001e-01 
-1.8992320e-01 1.4056590e-01 3.9999999e-02 
-2.1528573e-01 1.0090180e-01 4.9425557e-02 
-1.7660636e-01 1.1633170e-01 8.9817204e-02 
-1.7753682e-01 1.0195546e-01 1.2812743e-01 
-1.7462876e-01 1.0249981e-01 1.4051630e-01 
-1.9437389e-01 1.2981781e-01 3.9999999e-02 
-2.2033648e-01 1.0160051e-01 3.9999999e-02 
-1.4697270e-01 1.4565513e-01 1.4314918e-01 
-1.4169067e-01 1.6144329e-01 1.2651457e-01 
-1.3999033e-01 1.6292661e-01 1.3935205e-01 
-1.8317598e-01 1.1487619e-01 7.2843865e-02 
-1.5945412e-01 1.2583420e-01 1.2099224e-01 
-1.9966631e-01 1.1021475e-01 5.2785117e-02 
-1.4886983e-01 1.3807864e-01 1.5000001e-01 
-1.8993290e-01 1.0039038e-01 8.0293350e-02 
-1.3636039e-01 1.6636039e-01 1.5000001e-01 
-1.7603961e-01 1.4324807e-01 4.8377827e-02 
-1.6338673e-01 1.2891965e-01 9.0167485e-02 
-1.6965210e-01 1.0359191e-01 1.5000001e-01 
-1.5351561e-01 1.5293378e-01 8.1692576e-02 
-1.9987270e-01 1.0000006e-01 6.0399849e-02 
-1.5870863e-01 1.1807486e-01 1.5000001e-01 
-1.7586344e-01 1.2625045e-01 6.3637808e-02 
-1.5739985e-01 1.2038144e-01 1.3615803e-01 
-2.0468365e-01 1.1079313e-01 3.9999999e-02 
-1.7997311e-01 1.4225648e-01 3.9999999e-02 
-1.6124131e-01 1.4877337e-01 6.3677430e-02 
-1.3285115e-01 1.7007478e-01 1.3884772e-01 
-1.6469957e-01 1.0488454e-01 1.4042699e-01 
-2.0408832e-01 1.0006430e-01 4.8346307e-02 
-1.3757135e-01 1.6517204e-01 1.0703400e-01 
-1.3773341e-01 1.5196955e-01 1.4290422e-01 
-1.7012574e-01 1.0347914e-01 1.0946585e-01 
-2.1019968e-01 1.0040075e-01 3.9999999e-02 
-1.2963517e-01 1.7388591e-01 1.5000001e-01 
-1.7762373e-01 1.3298869e-01 4.6419546e-02 
-1.3947077e-01 1.4521602e-01 1.5000001e-01 
-1.4058702e-01 1.4544962e-01 1.2588577e-01 
-1.6553485e-01 1.4686064e-01 4.9663488e-02 
-1.5005438e-01 1.2165957e-01 1.5000001e-01 
-1.8302172e-01 1.2766817e-01 3.9999999e-02 
-1.2655777e-01 1.7797847e-01 1.3822471e-01 
-1.5982778e-01 1.0636266e-01 1.5000001e-01 
-1.8223593e-01 1.1512663e-01 5.3513542e-02 
-1.2778631e-01 1.7628609e-01 1.2502538e-01 
-1.9531634e-01 1.1079313e-01 3.9999999e-02 
-1.4553237e-01 1.3130058e-01 1.2348171e-01 
-1.4472021e-01 1.4451429e-01 9.4720289e-02 
-1.6838035e-01 1.3203198e-01 5.4802038e-02 
-1.2379482e-01 1.8211712e-01 1.5000001e-01 
-1.7027488e-01 1.4505050e-01 3.9999999e-02 
-1.6565911e-01 1.1842207e-01 7.5464346e-02 
-1.3208789e-01 1.5266828e-01 1.5000001e-01 
-1.9489425e-01 1.0010030e-01 4.9396515e-02 
-1.6000228e-01 1.3477536e-01 6.4376295e-02 
-1.4550835e-01 1.2482037e-01 1.3565558e-01 
-1.5756150e-01 1.0712212e-01 1.2761782e-01 
-1.2920788e-01 1.5926088e-01 1.4260085e-01 
-1.4777024e-01 1.2847456e-01 1.0473212e-01 
-1.2132074e-01 1.8630134e-01 1.3854522e-01 
-1.5498799e-01 1.0804132e-01 1.4030746e-01 
-1.3757135e-01 1.6517204e-01 8.2966000e-02 
-2.0000000e-01 1.0000000e-01 3.9999999e-02 
-1.1891280e-01 1.9095047e-01 1.5000001e-01 
-1.4170805e-01 1.2591223e-01 1.5000001e-01 
-1.5732694e-01 1.5075980e-01 4.8715159e-02 
-1.2578551e-01 1.7908625e-01 1.0431241e-01 
-1.7012574e-01 1.0347914e-01 8.0534145e-02 
-1.4704788e-01 1.3879533e-01 7.9868212e-02 
-1.5025115e-01 1.0989566e-01 1.5000001e-01 
-1.1648629e-01 1.9645213e-01 1.4019810e-01 
-1.8597792e-01 1.1152808e-01 3.9999999e-02 
-1.3451524e-01 1.3723311e-01 1.3715515e-01 
-1.1505050e-01 2.0027488e-01 1.5000001e-01 
-1.6095047e-01 1.4891280e-01 3.9999999e-02 
-1.4239720e-01 1.6084860e-01 6.3978180e-02 
-1.2454236e-01 1.6183428e-01 1.2718417e-01 
-1.2194565e-01 1.6660339e-01 1.3997121e-01 
-1.7753682e-01 1.0195546e-01 6.1872572e-02 
-1.7115629e-01 1.2884729e-01 3.9999999e-02 
-1.1351749e-01 2.0508467e-01 1.3908413e-01 
-1.1502972e-01 2.0033434e-01 1.2336113e-01 
-1.1225649e-01 2.0997311e-01 1.5000001e-01 
-1.8471427e-01 1.0090180e-01 4.9425557e-02 
-1.4555450e-01 1.1195049e-01 1.4015524e-01 
-1.5100968e-01 1.0958427e-01 1.0893279e-01 
-1.1056590e-01 2.1992320e-01 1.5000001e-01 
-1.2199695e-01 1.5891564e-01 1.5000001e-01 
-1.1117806e-01 2.1548577e-01 1.3361709e-01 
-1.3372111e-01 1.3080664e-01 1.5000001e-01 
-1.1000000e-01 2.3000000e-01 1.5000001e-01 
-1.2578551e-01 1.7908625e-01 8.5687585e-02 
-1.5747078e-01 1.4087196e-01 4.6235882e-02 
-1.4788538e-01 1.5662380e-01 5.0234877e-02 
-1.1000000e-01 2.3000000e-01 1.3768360e-01 
-1.8980032e-01 1.0040075e-01 3.9999999e-02 
-1.2935200e-01 1.4899804e-01 1.0314377e-01 
-1.6160153e-01 1.3729788e-01 3.9999999e-02 
-1.2530848e-01 1.6427287e-01 9.6499383e-02 
-1.1594722e-01 1.9782656e-01 1.0257293e-01 
-1.3625918e-01 1.5266676e-01 7.5158797e-02 
-1.4098124e-01 1.1416915e-01 1.5000001e-01 
-1.1000000e-01 2.3000000e-01 1.2220488e-01 
-1.7672595e-01 1.1299345e-01 3.9999999e-02 
-1.3347788e-01 1.3413951e-01 1.1144429e-01 
-1.1151192e-01 2.1357256e-01 1.1298591e-01 
-1.5211712e-01 1.5379483e-01 3.9999999e-02 
-1.4423189e-01 1.4277326e-01 6.2285803e-02 
-1.1510414e-01 1.6894206e-01 1.5000001e-01 
-1.3007006e-01 1.7334487e-01 6.7476161e-02 
-1.6334084e-01 1.1711550e-01 5.1859707e-02 
-1.3887879e-01 1.1526466e-01 1.2704846e-01 
-1.2614280e-01 1.3631259e-01 1.5000001e-01 
-1.3645928e-01 1.1658670e-01 1.3997272e-01 
-1.3999033e-01 1.6292661e-01 5.0647944e-02 
-1.7462876e-01 1.0249981e-01 4.9483709e-02 
-1.1000000e-01 2.3000000e-01 1.0376693e-01 
-1.1208367e-01 1.7496131e-01 1.4184511e-01 
-1.0729789e-01 1.9160153e-01 1.5000001e-01 
-1.7966352e-01 1.0160051e-01 3.9999999e-02 
-1.2211584e-01 1.4476730e-01 1.2305301e-01 
-1.0605154e-01 1.9750661e-01 1.4298859e-01 
-1.1142118e-01 2.1406916e-01 9.3075804e-02 
-1.5100968e-01 1.0958427e-01 8.1067204e-02 
-1.4723837e-01 1.4530014e-01 4.6493702e-02 
-1.1772300e-01 1.6136800e-01 1.1083377e-01 
-1.1575705e-01 1.9832785e-01 8.2574882e-02 
-1.3207519e-01 1.1915678e-01 1.5000001e-01 
-1.3199736e-01 1.3271344e-01 9.6368290e-02 
-1.1780433e-01 1.5011056e-01 1.3809994e-01 
-1.2918505e-01 1.4296895e-01 8.8916361e-02 
-1.6761747e-01 1.1518020e-01 3.9999999e-02 
-1.4388593e-01 1.5963517e-01 3.9999999e-02 
-1.0807865e-01 1.7886981e-01 1.5000001e-01 
-1.4509979e-01 1.2534311e-01 6.7689717e-02 
-1.0670140e-01 1.8477230e-01 1.3620104e-01 
-1.1901985e-01 1.4239617e-01 1.5000001e-01 
-1.0976765e-01 1.7394505e-01 1.2597215e-01 
-1.3285115e-01 1.7007478e-01 5.1152270e-02 
-1.4708571e-01 1.3133323e-01 5.4425128e-02 
-1.5756150e-01 1.0712212e-01 6.2382177e-02 
-1.0107766e-01 2.1319242e-01 1.5000001e-01 
-1.2775312e-01 1.2192415e-01 1.3973662e-01 
-1.0032561e-01 2.3000000e-01 1.5000001e-01 
-1.0990980e-01 1.7832863e-01 1.0931828e-01 
-1.1000000e-01 2.3000000e-01 8.3463810e-02 
-1.3306542e-01 1.1855602e-01 1.0807180e-01 
-1.2063327e-01 1.6307105e-01 8.1704542e-02 
-1.6469957e-01 1.0488454e-01 4.9573004e-02 
-1.4886983e-01 1.3807864e-01 3.9999999e-02 
-1.1948745e-01 1.8977900e-01 6.3297264e-02 
-1.3773341e-01 1.5196955e-01 4.7095779e-02 
-1.3636039e-01 1.6636039e-01 3.9999999e-02 
-1.2358791e-01 1.2482779e-01 1.5000001e-01 
-1.2655777e-01 1.7797847e-01 5.1775288e-02 
-1.6965210e-01 1.0359191e-01 3.9999999e-02 
-1.0827905e-01 1.8614957e-01 9.7836465e-02 
-1.1239617e-01 1.4901985e-01 1.5000001e-01 
-1.4111131e-01 9.4802931e-02 1.4689852e-01 
-1.5870863e-01 1.1807486e-01 3.9999999e-02 
-1.3692863e-01 1.0074994e-01 1.5983409e-01 
-9.9571869e-02 2.0371860e-01 1.3168782e-01 
-1.4244412e-01 9.2788331e-02 1.6128604e-01 
-9.8847292e-02 2.0115629e-01 1.5000001e-01 
-1.3990726e-01 9.6571006e-02 1.7000000e-01 
-1.3382119e-01 1.0484221e-01 1.7000000e-01 
-1.4548282e-01 8.7947428e-02 1.7000000e-01 
-1.3373028e-01 1.0495814e-01 1.2792920e-01 
-1.3005313e-01 1.0948142e-01 1.6187637e-01 
-1.4807793e-01 8.3504051e-02 1.5969761e-01 
-1.3070105e-01 1.3559188e-01 7.2353922e-02 
-1.4528279e-01 8.8277459e-02 1.2769137e-01 
-1.2168414e-01 1.2623765e-01 1.2629975e-01 
-1.1226328e-01 2.0994335e-01 6.6626422e-02 
-1.1949055e-01 1.2793027e-01 1.3947697e-01 
-1.2714343e-01 1.1284745e-01 1.4853458e-01 
-1.2132074e-01 1.8630134e-01 5.1454779e-02 
-1.0681487e-01 1.5985164e-01 1.2809549e-01 
-9.5242247e-02 2.3000000e-01 1.3944149e-01 
-1.2724683e-01 1.1273085e-01 1.7000000e-01 
-9.9787965e-02 1.9996695e-01 1.1281467e-01 
-1.5165420e-01 7.6818004e-02 1.4661327e-01 
-1.0972764e-01 1.7218998e-01 9.1207713e-02 
-1.2963517e-01 1.7388591e-01 3.9999999e-02 
-1.2449033e-01 1.1576770e-01 1.6101316e-01 
-1.5052752e-01 7.9002939e-02 1.7000000e-01 
-1.1000000e-01 2.3000000e-01 6.6176899e-02 
-1.4007767e-01 9.6323654e-02 1.1078513e-01 
-1.0631260e-01 1.5614280e-01 1.5000001e-01 
-1.0807426e-01 1.5166871e-01 1.3811521e-01 
-1.5498799e-01 1.0804132e-01 4.9692545e-02 
-1.2822445e-01 1.4743458e-01 6.0315575e-02 
-1.3947077e-01 1.4521602e-01 3.9999999e-02 
-1.5262385e-01 7.4872956e-02 1.6115953e-01 
-1.1557175e-01 1.3114722e-01 1.5000001e-01 
-1.3306542e-01 1.1855602e-01 8.1928201e-02 
-1.2920788e-01 1.5926088e-01 4.7399152e-02 
-9.9398486e-02 1.7705354e-01 1.3893594e-01 
-1.5005438e-01 1.2165957e-01 3.9999999e-02 
-9.5659591e-02 2.2315796e-01 1.1298591e-01 
-1.5982778e-01 1.0636266e-01 3.9999999e-02 
-1.2716262e-01 1.1282583e-01 1.1064268e-01 
-1.2020815e-01 1.2020815e-01 1.7000000e-01 
-1.1722042e-01 1.9467944e-01 4.9867161e-02 
-1.2020815e-01 1.2020815e-01 1.2799543e-01 
-1.1669834e-01 1.7080118e-01 6.3037992e-02 
-1.5068589e-01 7.8700453e-02 1.1096714e-01 
-1.5502298e-01 6.9770180e-02 1.7000000e-01 
-1.5486683e-01 7.0116095e-02 1.2861526e-01 
-1.1172789e-01 1.3456398e-01 1.3916987e-01 
-1.2379482e-01 1.8211712e-01 3.9999999e-02 
-1.0080663e-01 1.6372111e-01 1.5000001e-01 
-1.1651839e-01 1.2378798e-01 1.5987530e-01 
-9.1975026e-02 2.1289052e-01 1.4268254e-01 
-1.0437553e-01 2.0023011e-01 7.7649504e-02 
-1.1080950e-01 1.5398999e-01 9.2306152e-02 
-1.1864998e-01 1.4743972e-01 7.4691497e-02 
-1.5706539e-01 6.5041997e-02 1.5948677e-01 
-1.3436973e-01 1.0413824e-01 9.4175056e-02 
-1.3208789e-01 1.5266828e-01 3.9999999e-02 
-1.3887879e-01 1.1526466e-01 6.2951542e-02 
-1.1351749e-01 2.0508467e-01 5.0915867e-02 
-1.1644815e-01 1.3040538e-01 1.0716549e-01 
-1.4575341e-01 8.7498255e-02 9.3557127e-02 
-9.0158895e-02 2.3000000e-01 1.5000001e-01 
-1.0807612e-01 1.3807611e-01 1.5000001e-01 
-9.5456570e-02 1.8390906e-01 1.2405758e-01 
-1.2148741e-01 1.6744500e-01 4.7772259e-02 
-1.1127050e-01 2.1493094e-01 5.0941274e-02 
-1.0064901e-01 1.5781727e-01 1.4019813e-01 
-1.4555450e-01 1.1195049e-01 4.9844757e-02 
-1.0049921e-01 1.6810700e-01 1.1116619e-01 
-9.7510017e-02 2.1244611e-01 8.9341402e-02 
-9.4204575e-02 1.8058276e-01 1.5000001e-01 
-1.1000000e-01 2.3000000e-01 5.1777005e-02 
-1.2802362e-01 9.8685138e-02 1.5501642e-01 
-9.0365700e-02 2.3000000e-01 1.2417617e-01 
-1.0296435e-01 1.8302825e-01 8.4103368e-02 
-1.1273085e-01 1.2724683e-01 1.7000000e-01 
-1.1891280e-01 1.9095047e-01 3.9999999e-02 
-1.2981740e-01 1.3477275e-01 5.4898556e-02 
-9.5912233e-02 1.7170805e-01 1.5000001e-01 
-1.1108545e-01 1.2868574e-01 1.4657234e-01 
-9.1300458e-02 1.9628617e-01 1.3890323e-01 
-1.2186562e-01 1.0808946e-01 1.6400462e-01 
-1.4170805e-01 1.2591223e-01 3.9999999e-02 
-1.5895276e-01 6.0282830e-02 1.7000000e-01 
-1.6000773e-01 5.7424095e-02 1.4567842e-01 
-1.0650176e-01 1.3967791e-01 1.2525599e-01 
-1.0451325e-01 1.4178276e-01 1.3882054e-01 
-1.5763535e-01 6.3648231e-02 1.1273239e-01 
-1.0077790e-01 2.1705930e-01 7.2090156e-02 
-1.0928032e-01 1.3022216e-01 1.6125634e-01 
-1.5025115e-01 1.0989566e-01 3.9999999e-02 
-9.6309662e-02 1.6605289e-01 1.3655117e-01 
-1.2072498e-01 1.1968909e-01 9.4348177e-02 
-1.1505050e-01 2.0027488e-01 3.9999999e-02 
-9.3415178e-02 1.9108666e-01 1.0844993e-01 
-1.6070662e-01 5.5438090e-02 1.5935019e-01 
-8.9873880e-02 1.9008477e-01 1.5000001e-01 
-1.1225844e-01 1.2766379e-01 1.1092172e-01 
-1.2827428e-01 9.4385996e-02 1.7000000e-01 
-1.1504692e-01 1.7657189e-01 4.7864243e-02 
-1.0114723e-01 1.4557175e-01 1.5000001e-01 
-1.3373913e-01 8.6468786e-02 1.7000000e-01 
-1.3362283e-01 1.0509491e-01 7.6608285e-02 
-1.4546284e-01 8.7980472e-02 7.6575898e-02 
-1.1225649e-01 2.0997311e-01 3.9999999e-02 
-1.2234136e-01 1.0195880e-01 1.7000000e-01 
-1.3871598e-01 7.8236066e-02 1.7000000e-01 
-1.1644815e-01 1.3040538e-01 8.2834519e-02 
-1.3645928e-01 1.1658670e-01 5.0027281e-02 
-8.6417913e-02 2.0886646e-01 1.2636812e-01 
-1.0484221e-01 1.3382119e-01 1.7000000e-01 
-1.1056590e-01 2.1992320e-01 3.9999999e-02 
-1.0495814e-01 1.3373028e-01 1.2792920e-01 
-1.2199695e-01 1.5891564e-01 3.9999999e-02 
-1.5756115e-01 6.3831672e-02 9.4370052e-02 
-1.0285751e-01 1.6484526e-01 8.2078382e-02 
-1.3372111e-01 1.3080664e-01 3.9999999e-02 
-9.7882457e-02 1.4955121e-01 1.3838275e-01 
-1.1000000e-01 2.3000000e-01 3.9999999e-02 
-9.0121903e-02 2.3000000e-01 9.4123319e-02 
-1.1038212e-01 1.8637288e-01 4.7217295e-02 
-1.6230255e-01 5.0575521e-02 1.7000000e-01 
-9.5323183e-02 1.7501366e-01 9.8593727e-02 
-1.1596203e-01 1.0915957e-01 1.7000000e-01 
-8.5180201e-02 1.9761747e-01 1.5000001e-01 
-1.4592016e-01 6.5821432e-02 1.6363549e-01 
-1.1780433e-01 1.5011056e-01 5.1900055e-02 
-1.0267325e-01 1.4381702e-01 1.0549390e-01 
-9.4827794e-02 1.5358792e-01 1.5000001e-01 
-1.4098124e-01 1.1416915e-01 3.9999999e-02 
-1.0074994e-01 1.3692863e-01 1.5983409e-01 
-8.2599759e-02 2.3000000e-01 1.3725390e-01 
-1.3232641e-01 8.2144178e-02 1.2813517e-01 
-1.3717487e-01 7.4333169e-02 1.5510373e-01 
-1.0869461e-01 1.5914452e-01 6.3690126e-02 
-8.2993448e-02 2.0672596e-01 1.5000001e-01 
-8.3725989e-02 2.0105454e-01 1.4153016e-01 
-1.2168414e-01 1.2623765e-01 6.3700244e-02 
-1.2382888e-01 9.2062607e-02 1.4049283e-01 
-1.1435250e-01 1.0795542e-01 1.3307700e-01 
-1.1968909e-01 1.2072498e-01 7.5651824e-02 
-1.6376136e-01 4.5631293e-02 1.5918861e-01 
-9.1468759e-02 1.9527310e-01 8.9544073e-02 
-1.6322422e-01 4.7516860e-02 1.2294292e-01 
-1.4094537e-01 6.9659077e-02 1.7000000e-01 
-9.5125496e-02 1.5317982e-01 1.2145960e-01 
-8.1528075e-02 2.1597792e-01 1.5000001e-01 
-1.0325958e-01 1.7917524e-01 6.0498323e-02 
-1.1510414e-01 1.6894206e-01 3.9999999e-02 
-9.1879278e-02 1.5782030e-01 1.3792235e-01 
-1.3964468e-01 9.6950315e-02 5.9508149e-02 
-1.0915957e-01 1.1596203e-01 1.7000000e-01 
-1.3716745e-01 7.2232351e-02 1.3738467e-01 
-1.2579332e-01 8.6490326e-02 1.5735754e-01 
-1.4572231e-01 6.1430391e-02 1.4853956e-01 
-1.2614280e-01 1.3631259e-01 3.9999999e-02 
-1.0172129e-01 1.9641528e-01 5.3937431e-02 
-1.2775312e-01 1.2192415e-01 5.0263375e-02 
-8.5021816e-02 2.0812750e-01 1.0432570e-01 
-7.9831704e-02 2.3000000e-01 1.5000001e-01 
-8.9156777e-02 1.6207519e-01 1.5000001e-01 
-8.2043737e-02 2.2295862e-01 1.1670558e-01 
-1.0754642e-01 1.1895650e-01 1.2024063e-01 
-1.4949350e-01 5.6683742e-02 1.6301948e-01 
-9.6571006e-02 1.3990726e-01 1.7000000e-01 
-1.2766379e-01 1.1225844e-01 5.9078284e-02 
-1.0509491e-01 1.3362283e-01 9.3391716e-02 
-1.2527099e-01 9.0102859e-02 1.0950711e-01 
-1.5040961e-01 7.9227202e-02 5.9559822e-02 
-1.0729789e-01 1.9160153e-01 3.9999999e-02 
-1.1663233e-01 1.0303074e-01 1.0961609e-01 
-1.5758991e-01 6.3760646e-02 7.2803795e-02 
-9.4527394e-02 1.4129604e-01 1.4661820e-01 
-1.0267325e-01 1.4381702e-01 8.4506094e-02 
-8.6669371e-02 1.6631193e-01 1.3839544e-01 
-1.6336815e-01 4.7019653e-02 1.0345135e-01 
-1.6506010e-01 4.0683664e-02 1.7000000e-01 
-1.3207519e-01 1.1915678e-01 3.9999999e-02 
-7.8707345e-02 2.1078913e-01 1.4019813e-01 
-1.4549713e-01 6.5404460e-02 9.9931039e-02 
-1.2890936e-01 8.9519367e-02 8.9971796e-02 
-8.4169149e-02 1.7098123e-01 1.5000001e-01 
-1.0807865e-01 1.7886981e-01 3.9999999e-02 
-1.6576768e-01 3.7697155e-02 1.4573693e-01 
-1.0195880e-01 1.2234136e-01 1.7000000e-01 
-9.6950315e-02 1.3964468e-01 1.1049185e-01 
-1.4387538e-01 5.9595130e-02 1.7000000e-01 
-9.2732809e-02 1.4248027e-01 1.6122998e-01 
-1.3307418e-01 7.6948769e-02 1.0653537e-01 
-1.0362218e-01 1.1682539e-01 1.5742700e-01 
-1.4085481e-01 6.4590521e-02 1.1761534e-01 
-9.1648236e-02 1.5816759e-01 1.0248263e-01 
-1.1838647e-01 9.2904754e-02 1.2407512e-01 
-1.1901985e-01 1.4239617e-01 3.9999999e-02 
-8.4583700e-02 1.7017460e-01 1.2485132e-01 
-8.2348756e-02 1.7469914e-01 1.3999902e-01 
-9.0365700e-02 2.3000000e-01 6.5823831e-02 
-8.5732505e-02 2.2312440e-01 8.0498517e-02 
-1.1949055e-01 1.2793027e-01 5.0523024e-02 
-1.6621837e-01 3.5657465e-02 1.5900578e-01 
-8.9903727e-02 1.9060145e-01 7.5429775e-02 
-1.0107766e-01 2.1319242e-01 3.9999999e-02 
-8.7559141e-02 2.0636790e-01 7.5757764e-02 
-1.0032561e-01 2.3000000e-01 3.9999999e-02 
-1.1835593e-01 1.0187954e-01 8.8677272e-02 
-9.5242247e-02 2.3000000e-01 5.0558511e-02 
-7.9895660e-02 1.8025115e-01 1.5000001e-01 
-1.0895606e-01 1.5108569e-01 4.9999382e-02 
-9.3432099e-02 1.7268516e-01 7.2342053e-02 
-1.4815797e-01 5.0472297e-02 1.4473808e-01 
-1.5524939e-01 4.4131480e-02 1.3321169e-01 
-1.1043903e-01 9.9457219e-02 1.6135456e-01 
-1.6310829e-01 4.7913294e-02 8.3645821e-02 
-1.4891984e-01 5.0407019e-02 1.7000000e-01 
-1.0592008e-01 1.4028396e-01 6.4307682e-02 
-7.8035496e-02 1.8500379e-01 1.3894582e-01 
-1.0413824e-01 1.3436973e-01 7.5824946e-02 
-9.4177008e-02 1.3034941e-01 1.3516679e-01 
-1.2358791e-01 1.2482779e-01 3.9999999e-02 
-1.4528279e-01 8.8277459e-02 4.2308621e-02 
-1.3373028e-01 1.0495814e-01 4.2070806e-02 
-7.6362655e-02 1.8982778e-01 1.5000001e-01 
-1.1282583e-01 1.2716262e-01 5.9357319e-02 
-1.1239617e-01 1.4901985e-01 3.9999999e-02 
-8.8277459e-02 1.4528279e-01 1.2769137e-01 
-8.7947428e-02 1.4548282e-01 1.7000000e-01 
-9.4385996e-02 1.2827428e-01 1.7000000e-01 
-1.6705661e-01 3.1497452e-02 1.3197434e-01 
-9.7456910e-02 1.2783991e-01 1.0797451e-01 
-7.5160906e-02 1.9373429e-01 1.4019579e-01 
-9.8847292e-02 2.0115629e-01 3.9999999e-02 
-1.5770954e-01 6.3464180e-02 5.4466862e-02 
-1.1172789e-01 1.3456398e-01 5.0830126e-02 
-1.5340826e-01 4.2765759e-02 1.7000000e-01 
-1.6721538e-01 3.0643357e-02 1.7000000e-01 
-7.3591910e-02 1.9965211e-01 1.5000001e-01 
-7.6356098e-02 1.8984796e-01 1.2308220e-01 
-1.4649823e-01 5.0767247e-02 1.2009704e-01 
-1.3521127e-01 7.7912346e-02 7.4181005e-02 
-1.2667610e-01 7.1178041e-02 1.7000000e-01 
-7.2497278e-02 2.0464146e-01 1.3895091e-01 
-1.1820851e-01 1.0206082e-01 7.3413037e-02 
-1.6693686e-01 3.2126103e-02 1.1210384e-01 
-1.1917375e-01 8.0558807e-02 1.7000000e-01 
-7.1600519e-02 2.0966353e-01 1.5000001e-01 
-1.4476970e-01 6.2522329e-02 8.0434151e-02 
-8.5045084e-02 2.1546042e-01 6.5065220e-02 
-1.4134458e-01 7.7977449e-02 5.6544159e-02 
-1.0139988e-01 1.0672724e-01 1.4868270e-01 
-7.0900254e-02 2.1472730e-01 1.3890530e-01 
-9.1975026e-02 2.1289052e-01 4.7317460e-02 
-7.0400745e-02 2.1980032e-01 1.5000001e-01 
-8.3504051e-02 1.4807793e-01 1.5969761e-01 
-1.0631260e-01 1.5614280e-01 3.9999999e-02 
-7.0000000e-02 2.3000000e-01 1.5000001e-01 
-9.3260869e-02 1.2258010e-01 1.4427726e-01 
-1.2020815e-01 1.2020815e-01 4.2004567e-02 
-7.0000000e-02 2.3000000e-01 1.3766479e-01 
-1.1557175e-01 1.3114722e-01 3.9999999e-02 
-1.0064901e-01 1.5781727e-01 4.9801871e-02 
-8.9236557e-02 1.3047303e-01 1.5585417e-01 
-7.1609072e-02 2.0960957e-01 1.2303877e-01 
-1.4741071e-01 4.4138610e-02 1.5892601e-01 
-1.6806845e-01 2.5553811e-02 1.5879679e-01 
-7.9052687e-02 1.8233714e-01 9.6523486e-02 
-8.3597228e-02 1.7211741e-01 8.5040540e-02 
-1.0195948e-01 1.1037000e-01 1.0515851e-01 
-1.5383592e-01 3.6851201e-02 1.5459935e-01 
-7.0000000e-02 2.3000000e-01 1.2224095e-01 
-1.0451325e-01 1.4178276e-01 5.1179454e-02 
-1.2342557e-01 6.9183648e-02 1.4928597e-01 
-7.3848188e-02 1.9860382e-01 1.0566345e-01 
-1.4446786e-01 6.6249304e-02 6.3616008e-02 
-9.5084473e-02 1.1462568e-01 1.3573052e-01 
-1.6340609e-01 4.6887640e-02 6.3847385e-02 
-1.0743622e-01 1.0640445e-01 8.7452158e-02 
-1.1987460e-01 7.6666325e-02 1.1600407e-01 
-1.0646323e-01 9.3000494e-02 1.3806979e-01 
-8.7980472e-02 1.4546284e-01 9.3424097e-02 
-1.5141827e-01 5.5175520e-02 6.9495879e-02 
-1.3087647e-01 6.9738694e-02 8.9919634e-02 
-8.6468786e-02 1.3373913e-01 1.7000000e-01 
-1.0080663e-01 1.6372111e-01 3.9999999e-02 
-9.1988258e-02 1.5765731e-01 6.5486088e-02 
-1.2687923e-01 6.4727344e-02 1.2789840e-01 
-1.1033758e-01 8.6983137e-02 1.7000000e-01 
-9.5291883e-02 1.6583478e-01 4.9801871e-02 
-1.0212262e-01 1.0144103e-01 1.2110187e-01 
-1.6705661e-01 3.1497452e-02 9.2233337e-02 
-1.1897027e-01 7.3166288e-02 1.6358289e-01 
-8.4144644e-02 1.3614768e-01 1.4102601e-01 
-1.1341987e-01 8.0617443e-02 1.6364881e-01 
-1.5571050e-01 3.3425175e-02 1.7000000e-01 
-1.1549524e-01 7.7775881e-02 1.3369162e-01 
-8.6934745e-02 1.8219702e-01 6.0023170e-02 
-9.0158895e-02 2.3000000e-01 3.9999999e-02 
-7.9002939e-02 1.5052752e-01 1.7000000e-01 
-7.0000000e-02 2.3000000e-01 1.0389727e-01 
-1.3276193e-01 5.4514445e-02 1.5649332e-01 
-1.0807612e-01 1.3807611e-01 3.9999999e-02 
-1.0593548e-01 9.0030268e-02 1.5519720e-01 
-1.6872719e-01 2.0763783e-02 1.4257172e-01 
-9.1428652e-02 1.7442401e-01 5.0336223e-02 
-8.2089931e-02 1.4026307e-01 1.2913027e-01 
-1.0509810e-01 1.1532586e-01 7.1089968e-02 
-1.0317283e-01 9.5371984e-02 1.7000000e-01 
-1.4129604e-01 9.4527394e-02 2.3381799e-02 
-9.1410935e-02 1.1611967e-01 1.6143517e-01 
-9.7882457e-02 1.4955121e-01 5.1617246e-02 
-7.7277437e-02 1.5142059e-01 1.4659207e-01 
-1.0053573e-01 9.8583020e-02 1.6301279e-01 
-9.4204575e-02 1.8058276e-01 3.9999999e-02 
-1.6876051e-01 2.0491235e-02 1.7000000e-01 
-9.5912233e-02 1.7170805e-01 3.9999999e-02 
-1.2406045e-01 6.3365936e-02 1.6349967e-01 
-7.0935242e-02 2.1443437e-01 9.4793119e-02 
-1.1063297e-01 8.5897066e-02 1.1095801e-01 
-1.5047067e-01 7.9111174e-02 2.5164997e-02 
-1.2759475e-01 5.8821987e-02 1.7000000e-01 
-7.4079417e-02 1.9768889e-01 8.5681446e-02 
-1.2868574e-01 1.1108545e-01 2.3427662e-02 
-1.0678257e-01 9.5372818e-02 9.7472593e-02 
-8.2599759e-02 2.3000000e-01 5.2422255e-02 
-7.9227202e-02 1.5040961e-01 1.1044018e-01 
-1.5292798e-01 3.3634126e-02 1.2000813e-01 
-9.6323654e-02 1.4007767e-01 5.9214875e-02 
-8.8700138e-02 1.8422276e-01 4.6919901e-02 
-8.9525305e-02 1.1482667e-01 1.5352276e-01 
-7.4965276e-02 1.5257853e-01 1.6115528e-01 
-8.5775577e-02 1.2420383e-01 1.2976159e-01 
-9.2958100e-02 1.0782044e-01 1.6240153e-01 
-8.7498255e-02 1.4575341e-01 7.6442875e-02 
-8.9873880e-02 1.9008477e-01 3.9999999e-02 
-1.1623671e-01 7.7736318e-02 9.9508412e-02 
-9.1879278e-02 1.5782030e-01 5.2077655e-02 
-9.5371984e-02 1.0317283e-01 1.7000000e-01 
-1.0495814e-01 1.3373028e-01 4.2070806e-02 
-1.6706727e-01 3.1440850e-02 7.5179808e-02 
-1.0114723e-01 1.4557175e-01 3.9999999e-02 
-1.2901199e-01 5.9240714e-02 1.0474468e-01 
-8.1202142e-02 1.3690218e-01 1.1593574e-01 
-1.1872447e-01 8.0403551e-02 8.1257157e-02 
-1.4374007e-01 7.1908183e-02 4.0070921e-02 
-9.0204515e-02 1.1474194e-01 1.1826582e-01 
-7.9861306e-02 1.8033418e-01 6.6985592e-02 
-1.6930492e-01 1.5357123e-02 1.5856135e-01 
-9.0835981e-02 1.2636535e-01 8.6415812e-02 
-7.0000000e-02 2.3000000e-01 8.3611883e-02 
-7.3661253e-02 1.5321234e-01 1.2874711e-01 
-7.8236066e-02 1.3871598e-01 1.7000000e-01 
-1.5287146e-01 5.1358089e-02 5.5802453e-02 
-8.2274035e-02 1.9357921e-01 5.2687012e-02 
-1.6329540e-01 4.7271676e-02 4.4367887e-02 
-1.5314811e-01 2.7575806e-02 1.3986562e-01 
-1.6925851e-01 1.5860533e-02 1.2111750e-01 
-1.3223059e-01 4.7843080e-02 1.3401057e-01 
-8.4039256e-02 1.2023208e-01 1.4636767e-01 
-1.3181654e-01 4.8629690e-02 1.7000000e-01 
-8.8435851e-02 1.1243925e-01 1.7000000e-01 
-1.5744458e-01 2.3962626e-02 1.7000000e-01 
-8.3426476e-02 1.2084755e-01 1.5889992e-01 
-1.3990401e-01 3.9243050e-02 1.7000000e-01 
-8.6669371e-02 1.6631193e-01 5.1604554e-02 
-8.7627299e-02 1.1080937e-01 1.4956333e-01 
-7.1043991e-02 2.1355774e-01 7.4956968e-02 
-1.3503426e-01 4.2866576e-02 1.5494221e-01 
-8.5180201e-02 1.9761747e-01 3.9999999e-02 
-9.4827794e-02 1.5358792e-01 3.9999999e-02 
-1.4306177e-01 3.8917258e-02 1.0659701e-01 
-1.3797976e-01 4.8819225e-02 8.8596821e-02 
-1.3692863e-01 1.0074994e-01 1.0165911e-02 
-1.5639491e-01 2.6831232e-02 1.0387169e-01 
-7.8707345e-02 2.1078913e-01 4.9801871e-02 
-7.3595285e-02 1.9963804e-01 6.6915266e-02 
-8.2993448e-02 2.0672596e-01 3.9999999e-02 
-1.4730614e-01 8.4858105e-02 1.1085491e-02 
-6.9770180e-02 1.5502298e-01 1.7000000e-01 
-1.6925851e-01 1.5860533e-02 1.0309017e-01 
-1.4248027e-01 9.2732809e-02 8.7700216e-03 
-8.1528075e-02 2.1597792e-01 3.9999999e-02 
-1.2331177e-01 7.7528715e-02 5.9853420e-02 
-1.4070661e-01 3.6234681e-02 1.2287228e-01 
-1.0642494e-01 7.4657425e-02 1.4698838e-01 
-1.3106057e-01 6.0134284e-02 7.4394822e-02 
-1.0785608e-01 1.2155043e-01 3.5524283e-02 
-1.2879020e-01 8.0319934e-02 4.3456860e-02 
-8.5962377e-02 1.0961781e-01 1.3594326e-01 
-1.1284745e-01 1.2714343e-01 2.1465413e-02 
-1.0777525e-01 7.2694540e-02 1.6133209e-01 
-9.9351399e-02 1.2046856e-01 5.4534040e-02 
-1.6968985e-01 1.0264345e-02 1.7000000e-01 
-1.0209452e-01 8.0478005e-02 1.5991193e-01 
-1.6035856e-01 5.6436960e-02 2.5397869e-02 
-1.3022216e-01 1.0928032e-01 8.7436540e-03 
-1.2730592e-01 9.2519514e-02 2.9577596e-02 
-1.1847109e-01 9.2220269e-02 4.6242509e-02 
-1.0517221e-01 7.6412082e-02 1.7000000e-01 
-7.4088670e-02 1.3482931e-01 1.5265790e-01 
-7.0000000e-02 2.3000000e-01 6.6302046e-02 
-8.1533208e-02 1.7646852e-01 4.9928866e-02 
-7.9831704e-02 2.3000000e-01 3.9999999e-02 
-1.1084322e-01 6.7924812e-02 1.7000000e-01 
-1.1342962e-01 6.3511588e-02 1.5976010e-01 
-8.9156777e-02 1.6207519e-01 3.9999999e-02 
-1.6696355e-01 3.1987082e-02 5.5344936e-02 
-1.1059918e-01 6.8321466e-02 1.2785393e-01 
-1.4040527e-01 3.3151641e-02 1.4059955e-01 
-1.1336461e-01 8.5943215e-02 6.5368854e-02 
-1.0679760e-01 1.0138017e-01 5.7567529e-02 
-1.2378798e-01 1.1651839e-01 1.0124699e-02 
-9.8852776e-02 8.4428243e-02 1.7000000e-01 
-1.3667281e-01 7.9977162e-02 2.6709508e-02 
-9.8770440e-02 8.4524557e-02 1.2810677e-01 
-8.2156792e-02 1.1369804e-01 1.6294651e-01 
-8.5267186e-02 1.1630233e-01 1.0080600e-01 
-1.5239653e-01 7.5334579e-02 9.1961250e-03 
-7.8035496e-02 1.8500379e-01 5.1054191e-02 
-1.5061255e-01 6.2317811e-02 2.7452551e-02 
-9.4925895e-02 8.8820465e-02 1.6189042e-01 
-1.1708847e-01 5.6482654e-02 1.4581966e-01 
-1.4625640e-01 3.5375595e-02 8.8054880e-02 
-1.1583085e-01 5.9018765e-02 1.7000000e-01 
-7.3161565e-02 1.4493243e-01 1.0144962e-01 
-6.5041997e-02 1.5706539e-01 1.5948677e-01 
-9.2013858e-02 9.1833815e-02 1.4847381e-01 
-1.1788502e-01 5.4800753e-02 1.6100827e-01 
-6.8355687e-02 1.4606042e-01 1.3207000e-01 
-8.4169149e-02 1.7098123e-01 3.9999999e-02 
-1.1346044e-01 6.3456513e-02 1.1264040e-01 
-1.0819240e-01 1.0591936e-01 4.2754076e-02 
-6.9659077e-02 1.4094537e-01 1.7000000e-01 
-9.1923885e-02 9.1923885e-02 1.7000000e-01 
-1.6930804e-01 1.5322833e-02 8.4188722e-02 
-7.0832372e-02 2.1531247e-01 5.5867501e-02 
-1.5860416e-01 1.4412640e-02 1.7000000e-01 
-8.8962182e-02 1.2243484e-01 6.8686359e-02 
-1.0351781e-01 7.8638814e-02 1.0360797e-01 
-1.3990726e-01 9.6571006e-02 0.0000000e+00 
-7.4608490e-02 1.9569302e-01 4.9803711e-02 
-1.0055959e-01 9.5783360e-02 7.3810078e-02 
-8.8987619e-02 9.4769217e-02 1.6106629e-01 
-9.0965301e-02 1.0897512e-01 8.0857418e-02 
-1.5706539e-01 6.5041997e-02 1.0513231e-02 
-1.3625483e-01 3.2694180e-02 1.6266952e-01 
-1.3382119e-01 1.0484221e-01 0.0000000e+00 
-7.8058004e-02 1.1682206e-01 1.7000000e-01 
-1.4548282e-01 8.7947428e-02 0.0000000e+00 
-7.2497278e-02 2.0464146e-01 5.1049091e-02 
-6.9103405e-02 1.3679041e-01 1.4292118e-01 
-7.4768893e-02 1.2209377e-01 1.5654370e-01 
-1.5361060e-01 1.6308775e-02 1.5736283e-01 
-1.5470296e-01 1.6366163e-02 1.2764941e-01 
-1.1576770e-01 1.2449033e-01 8.9868456e-03 
-1.2010434e-01 4.9748845e-02 1.7000000e-01 
-7.9895660e-02 1.8025115e-01 3.9999999e-02 
-1.4210829e-01 2.6311049e-02 1.7000000e-01 
-8.8277459e-02 1.4528279e-01 4.2308621e-02 
-7.0000000e-02 2.3000000e-01 5.1849142e-02 
-9.1923885e-02 9.1923885e-02 1.1078827e-01 
-1.2724683e-01 1.1273085e-01 0.0000000e+00 
-1.3527621e-01 4.6076901e-02 7.4199997e-02 
-1.5052752e-01 7.9002939e-02 0.0000000e+00 
-6.3648231e-02 1.5763535e-01 1.1273239e-01 
-7.8515716e-02 1.3559963e-01 7.6251194e-02 
-1.2197248e-01 4.4974595e-02 1.5946159e-01 
-1.2093634e-01 4.7690690e-02 1.2284616e-01 
-7.8700453e-02 1.5068589e-01 5.9032861e-02 
-1.1336681e-01 6.3623630e-02 9.4227403e-02 
-6.4252384e-02 1.4614496e-01 1.6238731e-01 
-8.4428243e-02 9.8852776e-02 1.7000000e-01 
-8.4524557e-02 9.8770440e-02 1.2810677e-01 
-1.3000438e-01 6.1310671e-02 5.2498780e-02 
-7.6362655e-02 1.8982778e-01 3.9999999e-02 
-7.1178041e-02 1.2667610e-01 1.7000000e-01 
-7.4710980e-02 1.3153338e-01 9.3216740e-02 
-7.2323017e-02 1.2223486e-01 1.3880634e-01 
-6.0282830e-02 1.5895276e-01 1.7000000e-01 
-1.7000000e-01 0.0000000e+00 1.4490442e-01 
-1.6070662e-01 5.5438090e-02 1.0649818e-02 
-1.2020815e-01 1.2020815e-01 0.0000000e+00 
-1.7000000e-01 0.0000000e+00 1.5839991e-01 
-1.0372683e-01 7.8362904e-02 8.3708301e-02 
-1.3506824e-01 4.9966950e-02 5.9185073e-02 
-8.0478005e-02 1.0209452e-01 1.5991193e-01 
-1.0948142e-01 1.3005313e-01 8.1236344e-03 
-1.4756817e-01 3.3783760e-02 6.6459507e-02 
-7.3591910e-02 1.9965211e-01 3.9999999e-02 
-1.5502298e-01 6.9770180e-02 0.0000000e+00 
-1.4153564e-01 5.3876087e-02 3.9218411e-02 
-1.5127052e-01 2.3330022e-02 8.5473813e-02 
-1.7000000e-01 0.0000000e+00 1.7000000e-01 
-1.7000000e-01 0.0000000e+00 1.2965921e-01 
-5.8008056e-02 1.5979695e-01 1.4569423e-01 
-9.3077116e-02 9.0755992e-02 9.1279700e-02 
-1.2363735e-01 4.0172208e-02 1.7000000e-01 
-1.6925851e-01 1.5860533e-02 6.4301521e-02 
-6.3831672e-02 1.5756115e-01 9.4370052e-02 
-1.2112480e-01 4.7209982e-02 1.0334155e-01 
-7.1600519e-02 2.0966353e-01 3.9999999e-02 
-1.2447964e-01 3.7480935e-02 1.4591913e-01 
-6.8660207e-02 1.4697225e-01 8.5740685e-02 
-9.4802931e-02 1.4111131e-01 2.3101479e-02 
-9.1139093e-02 1.0794143e-01 6.3677415e-02 
-6.7834891e-02 1.2970200e-01 1.2474749e-01 
-7.0400745e-02 2.1980032e-01 3.9999999e-02 
-7.0000000e-02 2.3000000e-01 3.9999999e-02 
-1.7000000e-01 0.0000000e+00 1.1257580e-01 
-1.4188114e-01 2.2104679e-02 1.1362583e-01 
-6.4373568e-02 1.4035521e-01 1.1316318e-01 
-1.2512627e-01 3.5262126e-02 1.5926102e-01 
-5.5925325e-02 1.6053772e-01 1.6087392e-01 
-1.3854507e-01 2.1925002e-02 1.6249236e-01 
-1.6556413e-01 3.8581282e-02 2.1810889e-02 
-1.1032191e-01 9.8819889e-02 2.8669555e-02 
-7.0512705e-02 1.2459762e-01 1.0796840e-01 
-1.1273085e-01 1.2724683e-01 0.0000000e+00 
-7.6412082e-02 1.0517221e-01 1.7000000e-01 
-1.1413598e-01 1.0492705e-01 1.5629277e-02 
-7.4686974e-02 1.0640421e-01 1.4698838e-01 
-1.5895276e-01 6.0282830e-02 0.0000000e+00 
-1.1341073e-01 6.3545316e-02 7.2701357e-02 
-1.5461482e-01 9.8775327e-03 1.1226116e-01 
-5.9852343e-02 1.4414644e-01 1.7000000e-01 
-1.0074994e-01 1.3692863e-01 1.0165911e-02 
-1.3836175e-01 6.1849941e-02 2.4173295e-02 
-1.6376136e-01 4.5631293e-02 1.0811393e-02 
-1.4031085e-01 2.4577281e-02 9.5629841e-02 
-1.2607968e-01 3.1684611e-02 1.3190708e-01 
-7.2700515e-02 1.0777122e-01 1.6133209e-01 
-1.2078944e-01 4.8061542e-02 8.3532095e-02 
-1.2870809e-01 6.5085426e-02 3.3376943e-02 
-1.5450150e-01 1.1869398e-02 9.3796842e-02 
-7.5951062e-02 1.0550562e-01 1.1107498e-01 
-1.2827428e-01 9.4385996e-02 0.0000000e+00 
-1.3373913e-01 8.6468786e-02 0.0000000e+00 
-1.7000000e-01 0.0000000e+00 9.3604550e-02 
-1.2640809e-01 3.0347897e-02 1.7000000e-01 
-1.3544582e-01 7.3024392e-02 1.1073983e-02 
-1.4255649e-01 4.0417507e-02 4.5535680e-02 
-1.2234136e-01 1.0195880e-01 0.0000000e+00 
-7.5460412e-02 1.1860210e-01 8.0360658e-02 
-6.3760646e-02 1.5758991e-01 7.2803795e-02 
-1.3871598e-01 7.8236066e-02 0.0000000e+00 
-9.8685138e-02 1.2802362e-01 1.4983574e-02 
-1.6017364e-01 0.0000000e+00 1.7000000e-01 
-1.2592342e-01 3.2300007e-02 1.1203471e-01 
-1.2543038e-01 8.5043482e-02 1.1006045e-02 
-5.5314168e-02 1.4774336e-01 1.5531141e-01 
-1.6928345e-01 1.5592080e-02 4.6965536e-02 
-1.0550562e-01 7.5951062e-02 5.8925021e-02 
-1.0484221e-01 1.3382119e-01 0.0000000e+00 
-1.5574126e-01 2.0910664e-02 5.8493219e-02 
-5.4975875e-02 1.5032296e-01 1.2772664e-01 
-6.3366078e-02 1.2405991e-01 1.6349968e-01 
-7.7664271e-02 1.0425095e-01 9.4573468e-02 
-1.5763554e-01 2.7832909e-02 4.0042471e-02 
-1.4874266e-01 5.5332180e-02 1.0803279e-02 
-1.5741456e-01 0.0000000e+00 1.5782537e-01 
-1.6230255e-01 5.0575521e-02 0.0000000e+00 
-1.4478306e-01 1.0551061e-02 1.7000000e-01 
-9.0801321e-02 1.2485683e-01 2.9195558e-02 
-9.5366381e-02 1.0840379e-01 3.5824414e-02 
-1.1596203e-01 1.0915957e-01 0.0000000e+00 
-1.2750714e-01 2.5336364e-02 1.5902980e-01 
-8.3998770e-02 9.9217974e-02 7.6385088e-02 
-1.5122737e-01 3.6392394e-02 3.3380147e-02 
-5.0575521e-02 1.6230255e-01 1.7000000e-01 
-1.0335737e-01 1.0869078e-01 1.9670678e-02 
-6.8321466e-02 1.1059918e-01 1.2785393e-01 
-6.7924812e-02 1.1084322e-01 1.7000000e-01 
-1.1077178e-01 8.2797170e-02 3.2312132e-02 
-1.0500833e-01 1.1928096e-01 5.3696823e-03 
-7.1985222e-02 1.2958010e-01 6.5192744e-02 
-9.2788331e-02 1.4244412e-01 8.7139579e-03 
-1.6621837e-01 3.5657465e-02 1.0994227e-02 
-6.5209232e-02 1.4466083e-01 6.9243744e-02 
-1.4094537e-01 6.9659077e-02 0.0000000e+00 
-9.1923885e-02 9.1923885e-02 5.9211731e-02 
-1.3781242e-01 2.5419375e-02 7.7861629e-02 
-5.1950295e-02 1.5054625e-01 1.7000000e-01 
-1.5682499e-01 1.0631698e-02 7.2540686e-02 
-1.3832143e-01 1.2835897e-02 1.3465632e-01 
-1.2607968e-01 3.1684611e-02 9.2162356e-02 
-1.0915957e-01 1.1596203e-01 0.0000000e+00 
-1.7000000e-01 0.0000000e+00 7.3438078e-02 
-5.8821987e-02 1.2759475e-01 1.7000000e-01 
-1.2118326e-01 4.7059726e-02 6.3730575e-02 
-1.2834190e-01 2.0696836e-02 1.4310865e-01 
-6.2111892e-02 1.2154660e-01 1.1692525e-01 
-1.4130756e-01 8.4981369e-03 1.5055865e-01 
-6.3511588e-02 1.1342962e-01 1.5976010e-01 
-7.9209082e-02 1.2118264e-01 5.0044604e-02 
-1.4136040e-01 4.6883285e-02 2.4937768e-02 
-1.6872719e-01 2.0763783e-02 2.7428288e-02 
-8.1661150e-02 1.3556845e-01 3.0555459e-02 
-7.0116095e-02 1.5486683e-01 4.1384738e-02 
-4.7516860e-02 1.6322422e-01 1.2294292e-01 
-1.2839949e-01 2.0336481e-02 1.7000000e-01 
-9.6571006e-02 1.3990726e-01 0.0000000e+00 
-1.2345921e-01 6.9155231e-02 2.0696342e-02 
-6.5368995e-02 1.2897210e-01 7.8608558e-02 
-4.5631293e-02 1.6376136e-01 1.5918861e-01 
-5.4515213e-02 1.3276076e-01 1.5649314e-01 
-6.3464180e-02 1.5770954e-01 5.4466862e-02 
-1.4993116e-01 0.0000000e+00 1.4106394e-01 
-1.6506010e-01 4.0683664e-02 0.0000000e+00 
-1.4986283e-01 0.0000000e+00 1.7000000e-01 
-1.1059918e-01 6.8321466e-02 4.2146064e-02 
-1.5514664e-01 3.7485816e-02 1.4599801e-02 
-1.0195880e-01 1.2234136e-01 0.0000000e+00 
-1.4387538e-01 5.9595130e-02 0.0000000e+00 
-8.9453891e-02 1.3055919e-01 1.4036820e-02 
-7.6818004e-02 1.5165420e-01 2.3386728e-02 
-9.8770440e-02 8.4524557e-02 4.1893225e-02 
-1.2609614e-01 3.1619046e-02 7.5041398e-02 
-1.2910245e-01 1.5249836e-02 1.5872698e-01 
-5.5637851e-02 1.3845792e-01 9.5342442e-02 
-5.3464998e-02 1.3245670e-01 1.2435446e-01 
-4.7019653e-02 1.6336815e-01 1.0345135e-01 
-1.4460026e-01 1.6407335e-02 6.7852624e-02 
-5.9018765e-02 1.1583085e-01 1.7000000e-01 
-1.3840997e-01 2.7761633e-02 5.3360235e-02 
-1.0786795e-01 9.3784623e-02 1.1877800e-02 
-8.3504051e-02 1.4807793e-01 1.0302399e-02 
-1.2902041e-01 1.5929069e-02 1.2107164e-01 
-1.4732051e-01 0.0000000e+00 1.2107164e-01 
-5.0168410e-02 1.4455137e-01 1.1106058e-01 
-1.4673352e-01 4.4602957e-02 1.1298656e-02 
-1.6806845e-01 2.5553811e-02 1.1203207e-02 
-1.4478306e-01 0.0000000e+00 1.5944894e-01 
-1.7000000e-01 0.0000000e+00 5.5164967e-02 
-1.4891984e-01 5.0407019e-02 0.0000000e+00 
-5.6487206e-02 1.1708628e-01 1.4581966e-01 
-6.3623630e-02 1.1336681e-01 9.4227403e-02 
-8.3764955e-02 1.1266971e-01 3.4678992e-02 
-4.8183270e-02 1.3922803e-01 1.4061689e-01 
-1.3392040e-01 5.3350948e-02 1.4438916e-02 
-6.4569846e-02 1.4086123e-01 5.1426951e-02 
-1.2104103e-01 4.7424361e-02 4.4242695e-02 
-8.7947428e-02 1.4548282e-01 0.0000000e+00 
-4.0683664e-02 1.6506010e-01 1.7000000e-01 
-7.5951062e-02 1.0550562e-01 5.8925021e-02 
-9.4385996e-02 1.2827428e-01 0.0000000e+00 
-5.4801665e-02 1.1788459e-01 1.6100827e-01 
-1.2902041e-01 1.5929069e-02 1.0299777e-01 
-4.7913294e-02 1.6310829e-01 8.3645821e-02 
-1.4732051e-01 0.0000000e+00 1.0299777e-01 
-1.5340826e-01 4.2765759e-02 0.0000000e+00 
-1.6721538e-01 3.0643357e-02 0.0000000e+00 
-4.2765759e-02 1.5340826e-01 1.7000000e-01 
-1.2959926e-01 1.0199683e-02 1.7000000e-01 
-1.2667610e-01 7.1178041e-02 0.0000000e+00 
-8.4524557e-02 9.8770440e-02 4.1893225e-02 
-9.4778188e-02 1.1214255e-01 8.6304285e-03 
-4.1016437e-02 1.5546283e-01 1.3810767e-01 
-4.8629690e-02 1.3181654e-01 1.7000000e-01 
-1.1917375e-01 8.0558807e-02 0.0000000e+00 
-1.3970329e-01 0.0000000e+00 1.7000000e-01 
-3.7780970e-02 1.6574860e-01 1.4573920e-01 
-8.8597454e-02 1.1127750e-01 1.8906891e-02 
-1.3347504e-01 3.4676194e-02 3.6887158e-02 
-5.1549677e-02 1.4574732e-01 7.9096988e-02 
-1.1897027e-01 7.3166288e-02 6.4171022e-03 
-1.2596135e-01 3.2151796e-02 5.5208024e-02 
-1.1244038e-01 8.1932358e-02 6.3395528e-03 
-1.0642494e-01 7.4657425e-02 2.3011621e-02 
-6.3545316e-02 1.1341073e-01 7.2701357e-02 
-1.2908627e-01 1.5386136e-02 8.4061854e-02 
-1.2404866e-01 6.3355558e-02 6.4730248e-03 
-3.5657465e-02 1.6621837e-01 1.5900578e-01 
-1.4673944e-01 0.0000000e+00 8.4064014e-02 
-1.7000000e-01 0.0000000e+00 3.8766108e-02 
-6.0468134e-02 1.2345997e-01 6.6780433e-02 
-7.4872956e-02 1.5262385e-01 8.8404715e-03 
-4.9748845e-02 1.2010434e-01 1.7000000e-01 
-8.6468786e-02 1.3373913e-01 0.0000000e+00 
-1.6930492e-01 1.5357123e-02 1.1438652e-02 
-1.5445256e-01 1.1322557e-02 3.7933033e-02 
-1.1033758e-01 8.6983137e-02 0.0000000e+00 
-1.1710647e-01 5.6445308e-02 2.3764458e-02 
-4.2866778e-02 1.3503413e-01 1.5494223e-01 
-1.5571050e-01 3.3425175e-02 0.0000000e+00 
-9.7620882e-02 9.7242475e-02 8.2716700e-03 
-3.6881659e-02 1.5383969e-01 1.5459880e-01 
-7.9002939e-02 1.5052752e-01 0.0000000e+00 
-1.4397939e-01 1.9795550e-02 3.5158191e-02 
-4.6887640e-02 1.6340609e-01 6.3847385e-02 
-7.0018128e-02 1.2294142e-01 3.5967540e-02 
-1.0317283e-01 9.5371984e-02 0.0000000e+00 
-1.3464552e-01 4.1043263e-02 1.4553858e-02 
-9.2013858e-02 9.1833815e-02 2.1526188e-02 
-7.4333169e-02 1.3717487e-01 1.4896269e-02 
-4.7690690e-02 1.2093634e-01 1.2284616e-01 
-1.6876051e-01 2.0491235e-02 0.0000000e+00 
-1.2759475e-01 5.8821987e-02 0.0000000e+00 
-1.4210244e-01 9.7156363e-03 5.5322792e-02 
-1.3974740e-01 2.9741809e-02 2.1312462e-02 
-1.3000000e-01 0.0000000e+00 1.4490493e-01 
-1.3000000e-01 0.0000000e+00 1.5841560e-01 
-4.4974595e-02 1.2197248e-01 1.5946159e-01 
-9.1137677e-02 1.0611072e-01 6.4658574e-03 
-1.3000000e-01 0.0000000e+00 1.7000000e-01 
-1.3000000e-01 0.0000000e+00 1.2963311e-01 
-3.1497452e-02 1.6705661e-01 1.3197434e-01 
-4.9893320e-02 1.4747028e-01 5.9775855e-02 
-6.2193453e-02 1.2309033e-01 4.8016533e-02 
-1.2902041e-01 1.5929069e-02 6.4176366e-02 
-9.5371984e-02 1.0317283e-01 0.0000000e+00 
-1.4732051e-01 0.0000000e+00 6.4176366e-02 
-1.0209452e-01 8.0478005e-02 1.0088063e-02 
-3.3425175e-02 1.5571050e-01 1.7000000e-01 
-3.0643357e-02 1.6721538e-01 1.7000000e-01 
-5.3146649e-02 1.3097771e-01 6.3369721e-02 
-4.7209982e-02 1.2112480e-01 1.0334155e-01 
-6.4604878e-02 1.3859025e-01 2.6612295e-02 
-1.0777525e-01 7.2694540e-02 8.6679170e-03 
-3.2126103e-02 1.6693686e-01 1.1210384e-01 
-1.1342962e-01 6.3511588e-02 1.0239899e-02 
-7.8236066e-02 1.3871598e-01 0.0000000e+00 
-3.7298843e-02 1.4039221e-01 1.2599045e-01 
-1.3000000e-01 0.0000000e+00 1.1251017e-01 
-1.7000000e-01 0.0000000e+00 2.4176063e-02 
-6.8321466e-02 1.1059918e-01 4.2146064e-02 
-3.8137574e-02 1.3522564e-01 1.7000000e-01 
-5.2797701e-02 1.5150611e-01 4.2276107e-02 
-3.9460119e-02 1.4797157e-01 9.1017179e-02 
-1.3181654e-01 4.8629690e-02 0.0000000e+00 
-8.8435851e-02 1.1243925e-01 0.0000000e+00 
-1.5744458e-01 2.3962626e-02 0.0000000e+00 
-6.5041997e-02 1.5706539e-01 1.0513231e-02 
-1.3990401e-01 3.9243050e-02 0.0000000e+00 
-5.7389248e-02 1.6002023e-01 2.3937415e-02 
-9.4925895e-02 8.8820465e-02 8.1095900e-03 
-7.4768893e-02 1.2209377e-01 1.3456292e-02 
-4.7271676e-02 1.6329540e-01 4.4367887e-02 
-1.1788850e-01 5.4793250e-02 8.9085549e-03 
-1.5361060e-01 1.6308775e-02 1.2637171e-02 
-1.2420072e-01 3.8395043e-02 2.1191018e-02 
-4.0172208e-02 1.2363735e-01 1.7000000e-01 
-4.8061542e-02 1.2078944e-01 8.3532095e-02 
-6.9770180e-02 1.5502298e-01 0.0000000e+00 
-4.0817913e-02 1.4917028e-01 7.3959842e-02 
-8.1932724e-02 1.1243636e-01 6.3393894e-03 
-3.8294349e-02 1.3596536e-01 1.0411348e-01 
-1.3000000e-01 0.0000000e+00 9.3485378e-02 
-1.4953460e-01 0.0000000e+00 4.6613373e-02 
-3.3151962e-02 1.4040548e-01 1.4059959e-01 
-8.8987619e-02 9.4769217e-02 8.9336997e-03 
-3.1497452e-02 1.6705661e-01 9.2233337e-02 
-1.6968985e-01 1.0264345e-02 0.0000000e+00 
-7.4686974e-02 1.0640421e-01 2.3011621e-02 
-2.5553811e-02 1.6806845e-01 1.5879679e-01 
-1.0517221e-01 7.6412082e-02 0.0000000e+00 
-3.7481602e-02 1.2447944e-01 1.4591913e-01 
-1.3442235e-01 3.5702962e-02 6.0168160e-03 
-1.1084322e-01 6.7924812e-02 0.0000000e+00 
-1.2197248e-01 4.4974595e-02 1.0538418e-02 
-1.2905549e-01 1.5642282e-02 4.6852272e-02 
-9.8852776e-02 8.4428243e-02 0.0000000e+00 
-1.1583085e-01 5.9018765e-02 0.0000000e+00 
-1.7000000e-01 0.0000000e+00 1.1295007e-02 
-3.1040113e-02 1.5017971e-01 1.0376612e-01 
-6.4216703e-02 1.4627309e-01 7.6714586e-03 
-3.5262126e-02 1.2512627e-01 1.5926102e-01 
-8.0478005e-02 1.0209452e-01 1.0088063e-02 
-6.9659077e-02 1.4094537e-01 0.0000000e+00 
-9.1923885e-02 9.1923885e-02 0.0000000e+00 
-1.5860416e-01 1.4412640e-02 0.0000000e+00 
-3.1440850e-02 1.6706727e-01 7.5179808e-02 
-1.3000000e-01 0.0000000e+00 7.3310070e-02 
-7.8058004e-02 1.1682206e-01 0.0000000e+00 
-1.2010434e-01 4.9748845e-02 0.0000000e+00 
-1.3924538e-01 2.2907732e-02 8.9766979e-03 
-4.8004802e-02 1.3454519e-01 4.7090586e-02 
-5.5787545e-02 1.2909403e-01 3.2186244e-02 
-1.4210829e-01 2.6311049e-02 0.0000000e+00 
-2.3962626e-02 1.5744458e-01 1.7000000e-01 
-4.7059726e-02 1.2118326e-01 6.3730575e-02 
-2.0763783e-02 1.6872719e-01 1.4257172e-01 
-5.5438090e-02 1.6070662e-01 1.0649818e-02 
-1.2834190e-01 2.0696836e-02 2.6891354e-02 
-1.2495927e-01 3.5849430e-02 8.5399281e-03 
-2.0491235e-02 1.6876051e-01 1.7000000e-01 
-8.4428243e-02 9.8852776e-02 0.0000000e+00 
-3.1684611e-02 1.2607968e-01 1.3190708e-01 
-2.7120641e-02 1.4045252e-01 1.7000000e-01 
-7.1178041e-02 1.2667610e-01 0.0000000e+00 
-1.4988710e-01 0.0000000e+00 2.7868252e-02 
-6.0282830e-02 1.5895276e-01 0.0000000e+00 
-5.5123240e-02 1.4827299e-01 1.5077543e-02 
-4.0335923e-02 1.3390428e-01 6.3910648e-02 
-3.2300007e-02 1.2592342e-01 1.1203471e-01 
-3.0347897e-02 1.2640809e-01 1.7000000e-01 
-1.7000000e-01 0.0000000e+00 0.0000000e+00 
-7.2700515e-02 1.0777122e-01 8.6679170e-03 
-1.2363735e-01 4.0172208e-02 0.0000000e+00 
-1.5745111e-01 0.0000000e+00 1.2315064e-02 
-3.1987082e-02 1.6696355e-01 5.5344936e-02 
-3.7509941e-02 1.5042117e-01 5.0516106e-02 
-2.4857556e-02 1.4062323e-01 1.2298418e-01 
-1.3000000e-01 0.0000000e+00 5.5042662e-02 
-2.0274568e-02 1.5284738e-01 1.5803441e-01 
-3.4973860e-02 1.4826468e-01 5.8546074e-02 
-1.2750714e-01 2.5336364e-02 1.0970207e-02 
-7.6412082e-02 1.0517221e-01 0.0000000e+00 
-2.2444336e-02 1.4108314e-01 1.5370347e-01 
-2.8350106e-02 1.5759280e-01 7.0759565e-02 
-1.5357123e-02 1.6930492e-01 1.5856135e-01 
-5.9852343e-02 1.4414644e-01 0.0000000e+00 
-4.7424361e-02 1.2104103e-01 4.4242695e-02 
-6.3355699e-02 1.2404811e-01 6.4730020e-03 
-3.1684611e-02 1.2607968e-01 9.2162356e-02 
-2.9335426e-02 1.3939977e-01 8.2451314e-02 
-1.5860533e-02 1.6925851e-01 1.2111750e-01 
-4.0242925e-02 1.5231605e-01 3.4579393e-02 
-2.5336364e-02 1.2750714e-01 1.5902980e-01 
-5.6449857e-02 1.1710428e-01 2.3764458e-02 
-4.6238147e-02 1.3866572e-01 2.7919423e-02 
-1.2640809e-01 3.0347897e-02 0.0000000e+00 
-2.2807164e-02 1.5547763e-01 8.6748667e-02 
-5.4509833e-02 1.3271081e-01 1.3489263e-02 
-6.3511588e-02 1.1342962e-01 1.0239899e-02 
-1.7237931e-02 1.5036649e-01 1.4133085e-01 
-1.6017364e-01 0.0000000e+00 0.0000000e+00 
-2.2160359e-02 1.4693478e-01 9.7117797e-02 
-1.5860533e-02 1.6925851e-01 1.0309017e-01 
-4.5631293e-02 1.6376136e-01 1.0811393e-02 
-1.4478306e-01 1.0551061e-02 0.0000000e+00 
-1.4412640e-02 1.5860416e-01 1.7000000e-01 
-5.0575521e-02 1.6230255e-01 0.0000000e+00 
-1.3000000e-01 0.0000000e+00 3.8661879e-02 
-6.7924812e-02 1.1084322e-01 0.0000000e+00 
-3.1619046e-02 1.2609614e-01 7.5041398e-02 
-3.8685508e-02 1.6553982e-01 2.1457069e-02 
-1.2910245e-01 1.5249836e-02 1.1273025e-02 
-2.0696836e-02 1.2834190e-01 1.4310865e-01 
-5.1950295e-02 1.5054625e-01 0.0000000e+00 
-1.0264345e-02 1.6968985e-01 1.7000000e-01 
-5.8821987e-02 1.2759475e-01 0.0000000e+00 
-1.7556343e-02 1.4390200e-01 1.1027046e-01 
-2.0336481e-02 1.2839949e-01 1.7000000e-01 
-1.4281739e-01 0.0000000e+00 1.2589576e-02 
-1.6514087e-02 1.3952681e-01 1.7000000e-01 
-1.5322833e-02 1.6930804e-01 8.4188722e-02 
-1.2839949e-01 2.0336481e-02 0.0000000e+00 
-2.4898689e-02 1.4234260e-01 6.8301573e-02 
-9.2710685e-03 1.6288394e-01 1.5891841e-01 
-1.4986283e-01 0.0000000e+00 0.0000000e+00 
-5.4794163e-02 1.1788808e-01 8.9085549e-03 
-1.0503616e-02 1.5677001e-01 1.2189875e-01 
-2.6914015e-02 1.6293928e-01 4.0711977e-02 
-3.2151796e-02 1.2596135e-01 5.5208024e-02 
-1.3000000e-01 0.0000000e+00 2.4099844e-02 
-5.9018765e-02 1.1583085e-01 0.0000000e+00 
-1.5249836e-02 1.2910245e-01 1.5872698e-01 
-1.1680754e-02 1.5368217e-01 1.0199076e-01 
-3.7567940e-02 1.5533073e-01 1.4483960e-02 
-1.5929069e-02 1.2902041e-01 1.2107164e-01 
-1.5860533e-02 1.6925851e-01 6.4301521e-02 
-2.0992598e-02 1.5572570e-01 5.5517990e-02 
-6.9620702e-03 1.5601596e-01 1.3958988e-01 
-3.5657465e-02 1.6621837e-01 1.0994227e-02 
-3.3880882e-02 1.4204879e-01 2.8786073e-02 
-9.9263666e-03 1.4187348e-01 1.5426873e-01 
-3.3137925e-02 1.3222268e-01 3.7526619e-02 
-4.2660195e-02 1.3336788e-01 1.4072347e-02 
-4.0683664e-02 1.6506010e-01 0.0000000e+00 
-4.2765759e-02 1.5340826e-01 0.0000000e+00 
-1.2959926e-01 1.0199683e-02 0.0000000e+00 
-1.5929069e-02 1.2902041e-01 1.0299777e-01 
-4.8100636e-03 1.5918501e-01 1.7000000e-01 
-4.8629690e-02 1.3181654e-01 0.0000000e+00 
-1.3970329e-01 0.0000000e+00 0.0000000e+00 
-2.4089204e-02 1.4589365e-01 4.4961736e-02 
-1.3000000e-01 0.0000000e+00 1.1254295e-02 
-4.4974595e-02 1.2197248e-01 1.0538418e-02 
-6.7367405e-03 1.4288461e-01 1.7000000e-01 
0.0000000e+00 1.7000000e-01 1.4490442e-01 
0.0000000e+00 1.7000000e-01 1.5839991e-01 
-1.0199683e-02 1.2959926e-01 1.7000000e-01 
-3.8395822e-02 1.2420049e-01 2.1191018e-02 
-6.7094774e-03 1.4104326e-01 1.3016419e-01 
0.0000000e+00 1.7000000e-01 1.7000000e-01 
0.0000000e+00 1.7000000e-01 1.2965921e-01 
-1.2280863e-02 1.4066881e-01 8.5449435e-02 
-4.9748845e-02 1.2010434e-01 0.0000000e+00 
-1.5592080e-02 1.6928345e-01 4.6965536e-02 
-8.8348351e-03 1.5530398e-01 8.1299096e-02 
-1.5386136e-02 1.2908627e-01 8.4061854e-02 
0.0000000e+00 1.7000000e-01 1.1257580e-01 
-2.0763783e-02 1.6872719e-01 2.7428288e-02 
-1.3000000e-01 0.0000000e+00 0.0000000e+00 
0.0000000e+00 1.7000000e-01 9.3604550e-02 
1.6376033e-03 1.5464643e-01 1.5809204e-01 
-2.5553811e-02 1.6806845e-01 1.1203207e-02 
-3.3425175e-02 1.5571050e-01 0.0000000e+00 
-3.0643357e-02 1.6721538e-01 0.0000000e+00 
-1.5929069e-02 1.2902041e-01 6.4176366e-02 
-3.8137574e-02 1.3522564e-01 0.0000000e+00 
-3.5262126e-02 1.2512627e-01 1.0738979e-02 
-7.4318203e-05 1.4438361e-01 1.1351214e-01 
4.8100636e-03 1.5918501e-01 1.7000000e-01 
-1.1430160e-02 1.4423816e-01 5.5372231e-02 
-4.0172208e-02 1.2363735e-01 0.0000000e+00 
0.0000000e+00 1.7000000e-01 7.3438078e-02 
-4.5906883e-03 1.5486199e-01 6.4301521e-02 
0.0000000e+00 1.3000000e-01 1.4490493e-01 
0.0000000e+00 1.3000000e-01 1.5841560e-01 
-1.6737185e-02 1.5027843e-01 2.8533610e-02 
0.0000000e+00 1.3000000e-01 1.7000000e-01 
0.0000000e+00 1.3000000e-01 1.2963311e-01 
6.3937833e-03 1.5352012e-01 1.2793373e-01 
-1.5642282e-02 1.2905549e-01 4.6852272e-02 
4.9128099e-03 1.4556926e-01 1.7000000e-01 
8.8308677e-03 1.5944721e-01 1.4628889e-01 
1.0264345e-02 1.6968985e-01 1.7000000e-01 
0.0000000e+00 1.3000000e-01 1.1251017e-01 
-2.2444336e-02 1.4108314e-01 1.6296530e-02 
7.5288783e-03 1.4697064e-01 1.4256492e-01 
-2.0274568e-02 1.5284738e-01 1.1965589e-02 
-2.0696836e-02 1.2834190e-01 2.6891354e-02 
7.3331511e-03 1.4315355e-01 1.5750614e-01 
1.1524135e-02 1.6150516e-01 1.5930812e-01 
-2.3962626e-02 1.5744458e-01 0.0000000e+00 
0.0000000e+00 1.7000000e-01 5.5164967e-02 
-1.5357123e-02 1.6930492e-01 1.1438652e-02 
-2.0491235e-02 1.6876051e-01 0.0000000e+00 
0.0000000e+00 1.3000000e-01 9.3485378e-02 
-2.7120641e-02 1.4045252e-01 0.0000000e+00 
9.8775327e-03 1.5461482e-01 1.1226116e-01 
-2.5336364e-02 1.2750714e-01 1.0970207e-02 
-3.0347897e-02 1.2640809e-01 0.0000000e+00 
1.5357123e-02 1.6930492e-01 1.5856135e-01 
-7.6847244e-03 1.4141273e-01 3.9382320e-02 
1.4412640e-02 1.5860416e-01 1.7000000e-01 
1.5860533e-02 1.6925851e-01 1.2111750e-01 
-6.9620702e-03 1.5601596e-01 2.9578729e-02 
6.0124313e-03 1.4457633e-01 8.3619103e-02 
0.0000000e+00 1.3000000e-01 7.3310070e-02 
0.0000000e+00 1.7000000e-01 3.8766108e-02 
7.8020962e-03 1.5419735e-01 7.6623768e-02 
1.5860533e-02 1.6925851e-01 1.0309017e-01 
1.1869398e-02 1.5450150e-01 9.3796842e-02 
1.0199683e-02 1.2959926e-01 1.7000000e-01 
2.0763783e-02 1.6872719e-01 1.4257172e-01 
2.0491235e-02 1.6876051e-01 1.7000000e-01 
-9.2075244e-03 1.6186917e-01 1.0100642e-02 
-1.4412640e-02 1.5860416e-01 0.0000000e+00 
1.5322833e-02 1.6930804e-01 8.4188722e-02 
0.0000000e+00 1.3000000e-01 5.5042662e-02 
1.6854854e-02 1.4347483e-01 1.7000000e-01 
1.9784905e-02 1.5317057e-01 1.5519291e-01 
0.0000000e+00 1.7000000e-01 2.4176063e-02 
-9.9263666e-03 1.4187348e-01 1.5289498e-02 
-1.0264345e-02 1.6968985e-01 0.0000000e+00 
-1.5249836e-02 1.2910245e-01 1.1273025e-02 
-2.0336481e-02 1.2839949e-01 0.0000000e+00 
-1.6514087e-02 1.3952681e-01 0.0000000e+00 
1.5249836e-02 1.2910245e-01 1.5872698e-01 
5.5688862e-03 1.5366794e-01 4.1961022e-02 
2.5553811e-02 1.6806845e-01 1.5879679e-01 
1.5860533e-02 1.6925851e-01 6.4301521e-02 
1.5929069e-02 1.2902041e-01 1.2107164e-01 
2.3962626e-02 1.5744458e-01 1.7000000e-01 
0.0000000e+00 1.3000000e-01 3.8661879e-02 
0.0000000e+00 1.7000000e-01 1.1295007e-02 
1.5929069e-02 1.2902041e-01 1.0299777e-01 
2.1925002e-02 1.3854507e-01 1.6249236e-01 
1.1430160e-02 1.4423816e-01 5.5372231e-02 
2.2104679e-02 1.4188114e-01 1.1362583e-01 
-4.8100636e-03 1.5918501e-01 0.0000000e+00 
2.0696836e-02 1.2834190e-01 1.4310865e-01 
2.0336481e-02 1.2839949e-01 1.7000000e-01 
3.6374270e-03 1.4573646e-01 2.6918041e-02 
1.5592080e-02 1.6928345e-01 4.6965536e-02 
1.5386136e-02 1.2908627e-01 8.4061854e-02 
2.7575806e-02 1.5314811e-01 1.3986562e-01 
3.0643357e-02 1.6721538e-01 1.7000000e-01 
-6.7367405e-03 1.4288461e-01 0.0000000e+00 
1.6376033e-03 1.5464643e-01 1.1907960e-02 
0.0000000e+00 1.3000000e-01 2.4099844e-02 
-1.0199683e-02 1.2959926e-01 0.0000000e+00 
2.6831232e-02 1.5639491e-01 1.0387169e-01 
3.1497452e-02 1.6705661e-01 1.3197434e-01 
0.0000000e+00 1.7000000e-01 0.0000000e+00 
2.4033040e-02 1.5304570e-01 8.3864875e-02 
3.0730996e-02 1.5446806e-01 1.5458402e-01 
2.7304886e-02 1.4123225e-01 1.7000000e-01 
1.0100268e-02 1.6029440e-01 2.5794016e-02 
3.2126103e-02 1.6693686e-01 1.1210384e-01 
1.9052396e-02 1.5374255e-01 5.5548526e-02 
2.4577281e-02 1.4031085e-01 9.5629841e-02 
2.5336364e-02 1.2750714e-01 1.5902980e-01 
1.5929069e-02 1.2902041e-01 6.4176366e-02 
3.5657465e-02 1.6621837e-01 1.5900578e-01 
3.1497452e-02 1.6705661e-01 9.2233337e-02 
3.3425175e-02 1.5571050e-01 1.7000000e-01 
0.0000000e+00 1.3000000e-01 1.1254295e-02 
3.3634126e-02 1.5292798e-01 1.2000813e-01 
3.7697155e-02 1.6576768e-01 1.4573693e-01 
9.8425783e-03 1.6238308e-01 1.0713153e-02 
4.8100636e-03 1.5918501e-01 0.0000000e+00 
2.4374556e-02 1.4162247e-01 6.8960428e-02 
3.3151641e-02 1.4040527e-01 1.4059955e-01 
3.1440850e-02 1.6706727e-01 7.5179808e-02 
1.5642282e-02 1.2905549e-01 4.6852272e-02 
3.2694180e-02 1.3625483e-01 1.6266952e-01 
3.0347897e-02 1.2640809e-01 1.7000000e-01 
2.8932435e-02 1.4174747e-01 8.3758943e-02 
7.0688482e-03 1.4027821e-01 1.0514354e-02 
0.0000000e+00 1.3000000e-01 0.0000000e+00 
4.9128099e-03 1.4556926e-01 0.0000000e+00 
2.0763783e-02 1.6872719e-01 2.7428288e-02 
1.0264345e-02 1.6968985e-01 0.0000000e+00 
3.1684611e-02 1.2607968e-01 1.3190708e-01 
4.0683664e-02 1.6506010e-01 1.7000000e-01 
1.5357123e-02 1.6930492e-01 1.1438652e-02 
3.6234681e-02 1.4070661e-01 1.2287228e-01 
2.0041011e-02 1.4729959e-01 3.2939184e-02 
3.2300007e-02 1.2592342e-01 1.1203471e-01 
3.1987082e-02 1.6696355e-01 5.5344936e-02 
3.5262126e-02 1.2512627e-01 1.5926102e-01 
3.9243050e-02 1.3990401e-01 1.7000000e-01 
3.1684611e-02 1.2607968e-01 9.2162356e-02 
4.1883539e-02 1.4792857e-01 1.5632540e-01 
4.2765759e-02 1.5340826e-01 1.7000000e-01 
2.7832909e-02 1.5763554e-01 4.0042471e-02 
3.8917258e-02 1.4306177e-01 1.0659701e-01 
4.5631293e-02 1.6376136e-01 1.5918861e-01 
3.7480935e-02 1.2447964e-01 1.4591913e-01 
1.4412640e-02 1.5860416e-01 0.0000000e+00 
1.8410040e-02 1.5317453e-01 1.2102265e-02 
4.5061052e-02 1.5361570e-01 1.3155755e-01 
3.1619046e-02 1.2609614e-01 7.5041398e-02 
4.0901650e-02 1.5064755e-01 8.9324996e-02 
4.7516860e-02 1.6322422e-01 1.2294292e-01 
3.8615789e-02 1.5002839e-01 7.4185751e-02 
1.0199683e-02 1.2959926e-01 0.0000000e+00 
2.0696836e-02 1.2834190e-01 2.6891354e-02 
1.5249836e-02 1.2910245e-01 1.1273025e-02 
4.0172208e-02 1.2363735e-01 1.7000000e-01 
4.7019653e-02 1.6336815e-01 1.0345135e-01 
4.3249555e-02 1.3316028e-01 1.6281255e-01 
2.0491235e-02 1.6876051e-01 0.0000000e+00 
4.5227431e-02 1.3697360e-01 1.4445037e-01 
2.5553811e-02 1.6806845e-01 1.1203207e-02 
5.0575521e-02 1.6230255e-01 1.7000000e-01 
3.6699608e-02 1.4931540e-01 5.3662393e-02 
1.6854854e-02 1.4347483e-01 0.0000000e+00 
3.2151796e-02 1.2596135e-01 5.5208024e-02 
4.1145265e-02 1.3881402e-01 7.7769257e-02 
4.7913294e-02 1.6310829e-01 8.3645821e-02 
4.4974595e-02 1.2197248e-01 1.5946159e-01 
2.1925002e-02 1.3854507e-01 7.5076399e-03 
4.7843080e-02 1.3223059e-01 1.3401057e-01 
5.1950295e-02 1.5054625e-01 1.7000000e-01 
5.0328620e-02 1.4435808e-01 1.2218407e-01 
2.3962626e-02 1.5744458e-01 0.0000000e+00 
2.9504005e-02 1.4053221e-01 2.3434380e-02 
5.5438090e-02 1.6070662e-01 1.5935019e-01 
4.6887640e-02 1.6340609e-01 6.3847385e-02 
5.0146945e-02 1.3482027e-01 1.7000000e-01 
4.6929415e-02 1.3449696e-01 9.4523869e-02 
5.4351479e-02 1.4751752e-01 1.4990276e-01 
5.7424095e-02 1.6000773e-01 1.4567842e-01 
3.6089376e-02 1.3513169e-01 3.9670233e-02 
4.7690690e-02 1.2093634e-01 1.2284616e-01 
2.0336481e-02 1.2839949e-01 0.0000000e+00 
2.5336364e-02 1.2750714e-01 1.0970207e-02 
4.7209982e-02 1.2112480e-01 1.0334155e-01 
3.9543465e-02 1.5264964e-01 3.2439034e-02 
3.8581282e-02 1.6556413e-01 2.1810889e-02 
3.0643357e-02 1.6721538e-01 0.0000000e+00 
4.9748845e-02 1.2010434e-01 1.7000000e-01 
3.5657465e-02 1.6621837e-01 1.0994227e-02 
5.4514445e-02 1.3276193e-01 1.5649332e-01 
3.0908184e-02 1.3152242e-01 1.7230608e-02 
6.0282830e-02 1.5895276e-01 1.7000000e-01 
4.7271676e-02 1.6329540e-01 4.4367887e-02 
2.7304886e-02 1.4123225e-01 0.0000000e+00 
3.5012584e-02 1.4810835e-01 1.2511353e-02 
5.1073313e-02 1.4868903e-01 6.5998331e-02 
4.8061542e-02 1.2078944e-01 8.3532095e-02 
4.6771284e-02 1.3692130e-01 5.4375488e-02 
3.3425175e-02 1.5571050e-01 0.0000000e+00 
6.0945272e-02 1.4713490e-01 1.7000000e-01 
6.2008105e-02 1.4724204e-01 1.3729876e-01 
5.4800753e-02 1.1788502e-01 1.6100827e-01 
5.6918520e-02 1.4619638e-01 8.3225980e-02 
4.7059726e-02 1.2118326e-01 6.3730575e-02 
6.5041997e-02 1.5706539e-01 1.5948677e-01 
6.3648231e-02 1.5763535e-01 1.1273239e-01 
5.8821987e-02 1.2759475e-01 1.7000000e-01 
5.6482654e-02 1.1708847e-01 1.4581966e-01 
3.0347897e-02 1.2640809e-01 0.0000000e+00 
6.3831672e-02 1.5756115e-01 9.4370052e-02 
3.8395043e-02 1.2420072e-01 2.1191018e-02 
5.9240714e-02 1.2901199e-01 1.0474468e-01 
4.0683664e-02 1.6506010e-01 0.0000000e+00 
6.2633201e-02 1.4384709e-01 9.9119961e-02 
6.3604064e-02 1.3433944e-01 1.3899329e-01 
3.6132630e-02 1.3153327e-01 6.8131518e-03 
4.6015784e-02 1.3945802e-01 2.7691757e-02 
6.4590521e-02 1.4085481e-01 1.1761534e-01 
5.9018765e-02 1.1583085e-01 1.7000000e-01 
4.5631293e-02 1.6376136e-01 1.0811393e-02 
3.5849430e-02 1.2495927e-01 8.5399281e-03 
5.6992721e-02 1.3235365e-01 7.1548492e-02 
4.7424361e-02 1.2104103e-01 4.4242695e-02 
6.9770180e-02 1.5502298e-01 1.7000000e-01 
6.3365936e-02 1.2406045e-01 1.6349967e-01 
7.0116095e-02 1.5486683e-01 1.2861526e-01 
6.3760646e-02 1.5758991e-01 7.2803795e-02 
4.1534692e-02 1.3054343e-01 1.4345655e-02 
3.9243050e-02 1.3990401e-01 0.0000000e+00 
4.2765759e-02 1.5340826e-01 0.0000000e+00 
5.4539099e-02 1.4107895e-01 4.1326810e-02 
6.9717862e-02 1.4318667e-01 1.7000000e-01 
6.6419981e-02 1.2836045e-01 1.2151690e-01 
6.3511588e-02 1.1342962e-01 1.5976010e-01 
6.3464180e-02 1.5770954e-01 5.4466862e-02 
5.6436960e-02 1.6035856e-01 2.5397869e-02 
6.3456513e-02 1.1346044e-01 1.1264040e-01 
7.4872956e-02 1.5262385e-01 1.6115953e-01 
4.0172208e-02 1.2363735e-01 0.0000000e+00 
7.4475072e-02 1.4148726e-01 1.5637033e-01 
7.6818004e-02 1.5165420e-01 1.4661327e-01 
6.3623630e-02 1.1336681e-01 9.4227403e-02 
4.4974595e-02 1.2197248e-01 1.0538418e-02 
5.0575521e-02 1.6230255e-01 0.0000000e+00 
7.1178041e-02 1.2667610e-01 1.7000000e-01 
6.7348875e-02 1.4433993e-01 6.7496851e-02 
7.0237353e-02 1.2015295e-01 1.4884368e-01 
5.5438090e-02 1.6070662e-01 1.0649818e-02 
6.7924812e-02 1.1084322e-01 1.7000000e-01 
6.8763584e-02 1.3351452e-01 8.1478804e-02 
6.8321466e-02 1.1059918e-01 1.2785393e-01 
7.9002939e-02 1.5052752e-01 1.7000000e-01 
5.4347504e-02 1.4416714e-01 1.2462278e-02 
6.4219415e-02 1.3281418e-01 5.2470140e-02 
6.3545316e-02 1.1341073e-01 7.2701357e-02 
5.1950295e-02 1.5054625e-01 0.0000000e+00 
7.8700453e-02 1.5068589e-01 1.1096714e-01 
7.3166288e-02 1.1897027e-01 1.6358289e-01 
7.8236066e-02 1.3871598e-01 1.7000000e-01 
7.4654765e-02 1.2138601e-01 1.4367539e-01 
5.0146945e-02 1.3482027e-01 0.0000000e+00 
7.6948769e-02 1.3307418e-01 1.0653537e-01 
5.5891812e-02 1.3154067e-01 1.4477622e-02 
7.2694540e-02 1.0777525e-01 1.6133209e-01 
8.3504051e-02 1.4807793e-01 1.5969761e-01 
6.2602296e-02 1.3926664e-01 2.5739163e-02 
8.1571154e-02 1.3821267e-01 1.4375471e-01 
5.6445308e-02 1.1710647e-01 2.3764458e-02 
4.9748845e-02 1.2010434e-01 0.0000000e+00 
7.4657425e-02 1.0642494e-01 1.4698838e-01 
6.5304741e-02 1.2910746e-01 3.5169963e-02 
6.0282830e-02 1.5895276e-01 0.0000000e+00 
8.1040516e-02 1.2741098e-01 1.2656191e-01 
7.5935438e-02 1.1955750e-01 9.2508316e-02 
5.4793250e-02 1.1788850e-01 8.9085549e-03 
6.5041997e-02 1.5706539e-01 1.0513231e-02 
7.6412082e-02 1.0517221e-01 1.7000000e-01 
8.0558807e-02 1.1917375e-01 1.7000000e-01 
7.9227202e-02 1.5040961e-01 5.9559822e-02 
7.4752890e-02 1.4380115e-01 4.5936167e-02 
6.0945272e-02 1.4713490e-01 0.0000000e+00 
8.7947428e-02 1.4548282e-01 1.7000000e-01 
8.0617443e-02 1.1341987e-01 1.6364881e-01 
8.8277459e-02 1.4528279e-01 1.2769137e-01 
7.9202510e-02 1.3515647e-01 7.0595771e-02 
7.8414120e-02 1.4210941e-01 5.9069667e-02 
8.4643014e-02 1.2562920e-01 1.5781976e-01 
8.6468786e-02 1.3373913e-01 1.7000000e-01 
5.8821987e-02 1.2759475e-01 0.0000000e+00 
8.2907639e-02 1.3447499e-01 8.1311733e-02 
6.8321466e-02 1.1059918e-01 4.2146064e-02 
8.7498255e-02 1.4575341e-01 9.3557127e-02 
8.0478005e-02 1.0209452e-01 1.5991193e-01 
7.8638814e-02 1.0351781e-01 1.0360797e-01 
8.2805909e-02 1.1170159e-01 1.1598636e-01 
8.3732523e-02 1.1037916e-01 1.3229759e-01 
8.5959181e-02 1.3079424e-01 9.2809819e-02 
9.2788331e-02 1.4244412e-01 1.6128604e-01 
6.3355558e-02 1.2404866e-01 6.4730248e-03 
5.9018765e-02 1.1583085e-01 0.0000000e+00 
6.9030166e-02 1.2153020e-01 2.3913801e-02 
7.8362904e-02 1.0372683e-01 8.3708301e-02 
8.6626135e-02 1.1310703e-01 1.4865048e-01 
8.7980472e-02 1.4546284e-01 7.6575898e-02 
8.9138485e-02 1.2786672e-01 1.0998140e-01 
6.9770180e-02 1.5502298e-01 0.0000000e+00 
6.3511588e-02 1.1342962e-01 1.0239899e-02 
8.0408096e-02 1.2299493e-01 5.8493923e-02 
9.4802931e-02 1.4111131e-01 1.4689852e-01 
7.5951062e-02 1.0550562e-01 5.8925021e-02 
7.9111174e-02 1.5047067e-01 2.5164997e-02 
8.4428243e-02 9.8852776e-02 1.7000000e-01 
9.2062607e-02 1.2382888e-01 1.4049283e-01 
8.4524557e-02 9.8770440e-02 1.2810677e-01 
6.9717862e-02 1.4318667e-01 0.0000000e+00 
8.0742709e-02 1.2915619e-01 4.4859681e-02 
8.9471340e-02 1.1334880e-01 1.7000000e-01 
7.5334579e-02 1.5239653e-01 9.1961250e-03 
7.3043987e-02 1.3619292e-01 1.1962829e-02 
9.6571006e-02 1.3990726e-01 1.7000000e-01 
9.4385996e-02 1.2827428e-01 1.7000000e-01 
8.7242246e-02 1.2108249e-01 7.7778086e-02 
9.6323654e-02 1.4007767e-01 1.1078513e-01 
8.0430076e-02 1.3583916e-01 2.7537026e-02 
9.0904161e-02 1.0595550e-01 1.6381180e-01 
9.8102808e-02 1.2998678e-01 1.5379874e-01 
7.9660133e-02 1.1863983e-01 3.4163270e-02 
9.3555324e-02 1.3295871e-01 8.0078982e-02 
8.8277459e-02 1.4528279e-01 4.2308621e-02 
8.8820465e-02 9.4925895e-02 1.6189042e-01 
7.1178041e-02 1.2667610e-01 0.0000000e+00 
1.0074994e-01 1.3692863e-01 1.5983409e-01 
6.7924812e-02 1.1084322e-01 0.0000000e+00 
7.4657425e-02 1.0642494e-01 2.3011621e-02 
7.3389962e-02 1.1708847e-01 8.9062797e-03 
9.7139470e-02 1.1927764e-01 1.2377062e-01 
7.9002939e-02 1.5052752e-01 0.0000000e+00 
9.2734836e-02 1.1016744e-01 9.0429395e-02 
9.1833815e-02 9.2013858e-02 1.4847381e-01 
7.2694540e-02 1.0777525e-01 8.6679170e-03 
9.1923885e-02 9.1923885e-02 1.7000000e-01 
7.8236066e-02 1.3871598e-01 0.0000000e+00 
8.4858105e-02 1.4730614e-01 1.1085491e-02 
1.0195881e-01 1.2234136e-01 1.7000000e-01 
9.1923885e-02 9.1923885e-02 1.1078827e-01 
9.6950315e-02 1.3964468e-01 5.9508149e-02 
1.0484221e-01 1.3382119e-01 1.7000000e-01 
1.0495814e-01 1.3373028e-01 1.2792920e-01 
9.0755992e-02 9.3077116e-02 9.1279700e-02 
9.6781798e-02 1.0128332e-01 1.2123493e-01 
9.9084072e-02 1.0627846e-01 1.7000000e-01 
9.4769217e-02 8.8987619e-02 1.6106629e-01 
9.7612850e-02 9.7740017e-02 1.6425380e-01 
1.0097831e-01 1.0862485e-01 1.3802493e-01 
1.0077175e-01 1.1473672e-01 1.0753088e-01 
1.0413824e-01 1.3436973e-01 9.4175056e-02 
8.4524557e-02 9.8770440e-02 4.1893225e-02 
8.3934605e-02 1.2539984e-01 1.1968611e-02 
1.0518691e-01 1.1926267e-01 1.6347936e-01 
9.5158078e-02 1.0313474e-01 7.6716937e-02 
7.6412082e-02 1.0517221e-01 0.0000000e+00 
1.0948142e-01 1.3005313e-01 1.6187637e-01 
8.0558807e-02 1.1917375e-01 0.0000000e+00 
1.0509491e-01 1.3362283e-01 7.6608285e-02 
9.7387776e-02 1.1481199e-01 5.9539143e-02 
9.4527394e-02 1.4129604e-01 2.3381799e-02 
8.7947428e-02 1.4548282e-01 0.0000000e+00 
8.0478005e-02 1.0209452e-01 1.0088063e-02 
1.0277620e-01 1.0890426e-01 9.6709169e-02 
8.1918575e-02 1.1016216e-01 5.0112079e-03 
8.6468786e-02 1.3373913e-01 0.0000000e+00 
9.1923885e-02 9.1923885e-02 5.9211731e-02 
9.8770440e-02 8.4524557e-02 1.2810677e-01 
9.8852776e-02 8.4428243e-02 1.7000000e-01 
9.3802914e-02 1.2618043e-01 2.6888596e-02 
1.0405655e-01 1.1856417e-01 8.0796286e-02 
8.8014856e-02 1.1123411e-01 1.8732943e-02 
1.0915957e-01 1.1596204e-01 1.7000000e-01 
9.2732809e-02 1.4248027e-01 8.7700216e-03 
1.1284745e-01 1.2714343e-01 1.4853458e-01 
1.1273085e-01 1.2724683e-01 1.7000000e-01 
9.4313562e-02 1.0941691e-01 3.5264213e-02 
1.0892880e-01 1.0636641e-01 1.5700403e-01 
1.1282583e-01 1.2716262e-01 1.1064268e-01 
1.0641695e-01 9.6788682e-02 1.7000000e-01 
1.0209452e-01 8.0478005e-02 1.5991193e-01 
1.0611072e-01 9.1137677e-02 1.6353415e-01 
1.1576770e-01 1.2449033e-01 1.6101316e-01 
9.5007561e-02 1.2274326e-01 1.6269894e-02 
1.0495814e-01 1.3373028e-01 4.2070806e-02 
1.0258705e-01 1.1604809e-01 4.7984052e-02 
9.4185233e-02 1.1123935e-01 2.1167623e-02 
1.1234120e-01 1.1052433e-01 1.1886241e-01 
9.9217974e-02 8.3998770e-02 7.6385088e-02 
8.4428243e-02 9.8852776e-02 0.0000000e+00 
1.0824505e-01 9.5286131e-02 1.1328711e-01 
8.9471340e-02 1.1334880e-01 0.0000000e+00 
9.1111653e-02 1.0896742e-01 7.4051679e-03 
9.6571006e-02 1.3990726e-01 0.0000000e+00 
9.4385996e-02 1.2827428e-01 0.0000000e+00 
1.0517221e-01 7.6412082e-02 1.7000000e-01 
9.1833815e-02 9.2013858e-02 2.1526188e-02 
1.0074994e-01 1.3692863e-01 1.0165911e-02 
8.8820465e-02 9.4925895e-02 8.1095900e-03 
1.1596203e-01 1.0915957e-01 1.7000000e-01 
1.1225844e-01 1.2766379e-01 5.9078284e-02 
1.0640421e-01 7.4686974e-02 1.4698838e-01 
1.0425095e-01 7.7664271e-02 9.4573468e-02 
1.0550562e-01 7.5951062e-02 1.1107498e-01 
1.1130580e-01 8.7374210e-02 1.4905134e-01 
1.2020815e-01 1.2020815e-01 1.7000000e-01 
1.1495701e-01 9.9019282e-02 1.4158432e-01 
1.2020815e-01 1.2020815e-01 1.2799543e-01 
1.0777122e-01 7.2700515e-02 1.6133209e-01 
9.8770440e-02 8.4524557e-02 4.1893225e-02 
1.1325828e-01 8.9018591e-02 1.7000000e-01 
1.1197203e-01 1.0598388e-01 7.0187032e-02 
1.1869822e-01 1.0440441e-01 1.5585913e-01 
1.1968909e-01 1.2072498e-01 9.4348177e-02 
1.1196727e-01 9.2951186e-02 8.9594968e-02 
1.1243636e-01 8.1932724e-02 1.6366062e-01 
1.2378798e-01 1.1651839e-01 1.5987530e-01 
1.1609943e-01 1.0483381e-01 8.4490873e-02 
1.0470518e-01 1.1540185e-01 1.8780675e-02 
9.1923885e-02 9.1923885e-02 0.0000000e+00 
9.4769217e-02 8.8987619e-02 8.9336997e-03 
1.0195881e-01 1.2234136e-01 0.0000000e+00 
1.1059918e-01 6.8321466e-02 1.2785393e-01 
1.0484221e-01 1.3382119e-01 0.0000000e+00 
1.1108545e-01 1.2868574e-01 2.3427662e-02 
1.2072498e-01 1.1968909e-01 7.5651824e-02 
1.1084322e-01 6.7924812e-02 1.7000000e-01 
9.7612850e-02 9.7740017e-02 5.7461946e-03 
1.2234136e-01 1.0195880e-01 1.7000000e-01 
1.0550562e-01 7.5951062e-02 5.8925021e-02 
1.2129130e-01 9.5121130e-02 1.5767215e-01 
9.9084072e-02 1.0627846e-01 0.0000000e+00 
1.0928032e-01 1.3022216e-01 8.7436540e-03 
1.2724683e-01 1.1273085e-01 1.7000000e-01 
1.2262357e-01 1.0000528e-01 1.0436594e-01 
1.1849212e-01 8.0137745e-02 1.7000000e-01 
1.1342962e-01 6.3511588e-02 1.5976010e-01 
1.2868574e-01 1.1108545e-01 1.4657234e-01 
1.2766379e-01 1.1225844e-01 1.1092172e-01 
1.2067316e-01 8.1779115e-02 1.3602650e-01 
1.1588100e-01 1.0277614e-01 4.8073985e-02 
1.1851859e-01 9.2369415e-02 7.2579153e-02 
1.2020815e-01 1.2020815e-01 4.2004567e-02 
1.3022216e-01 1.0928032e-01 1.6125634e-01 
1.0892880e-01 1.0636641e-01 1.2995969e-02 
1.1336681e-01 6.3623630e-02 9.4227403e-02 
1.2020933e-01 8.0532238e-02 9.9851027e-02 
1.1670410e-01 7.6944195e-02 8.2202032e-02 
9.8852776e-02 8.4428243e-02 0.0000000e+00 
1.2477347e-01 8.9314267e-02 1.1519425e-01 
1.1156732e-01 8.8642478e-02 3.6559295e-02 
1.0915957e-01 1.1596204e-01 0.0000000e+00 
1.1583085e-01 5.9018765e-02 1.7000000e-01 
1.0209452e-01 8.0478005e-02 1.0088063e-02 
1.2827428e-01 9.4385996e-02 1.7000000e-01 
1.1498677e-01 1.0461150e-01 2.7118081e-02 
1.2325678e-01 7.6817475e-02 1.5568690e-01 
1.1273085e-01 1.2724683e-01 0.0000000e+00 
1.1526817e-01 8.2755648e-02 5.1855847e-02 
1.1708628e-01 5.6487206e-02 1.4581966e-01 
1.0611072e-01 9.1137677e-02 6.4658574e-03 
1.1651839e-01 1.2378798e-01 1.0124699e-02 
1.1341073e-01 6.3545316e-02 7.2701357e-02 
1.0640421e-01 7.4686974e-02 2.3011621e-02 
1.0641695e-01 9.6788682e-02 0.0000000e+00 
1.2716262e-01 1.1282583e-01 5.9357319e-02 
1.3373028e-01 1.0495814e-01 1.2792920e-01 
1.3382119e-01 1.0484221e-01 1.7000000e-01 
1.2258630e-01 6.8651624e-02 1.7000000e-01 
1.1788459e-01 5.4801665e-02 1.6100827e-01 
1.1130580e-01 8.7374210e-02 2.0948656e-02 
1.3047303e-01 8.9236557e-02 1.5585417e-01 
1.1059918e-01 6.8321466e-02 4.2146064e-02 
1.2594934e-01 7.3038802e-02 1.2004042e-01 
1.3362283e-01 1.0509491e-01 9.3391716e-02 
1.2584753e-01 6.7881405e-02 1.3879284e-01 
1.3692863e-01 1.0074994e-01 1.5983409e-01 
1.2954976e-01 8.9147165e-02 8.6763583e-02 
1.0517221e-01 7.6412082e-02 0.0000000e+00 
1.2010434e-01 4.9748845e-02 1.7000000e-01 
1.2649587e-01 6.4825699e-02 1.6234030e-01 
1.1596203e-01 1.0915957e-01 0.0000000e+00 
1.3373913e-01 8.6468786e-02 1.7000000e-01 
1.0777122e-01 7.2700515e-02 8.6679170e-03 
1.2477977e-01 9.2197850e-02 4.6702266e-02 
1.1951182e-01 1.0833476e-01 8.5658133e-03 
1.3436973e-01 1.0413824e-01 7.5824946e-02 
1.2020815e-01 1.2020815e-01 0.0000000e+00 
1.2093634e-01 4.7690690e-02 1.2284616e-01 
1.2576611e-01 6.1366674e-02 1.0821819e-01 
1.1243636e-01 8.1932724e-02 6.3393894e-03 
1.2197248e-01 4.4974595e-02 1.5946159e-01 
1.2755086e-01 6.0001891e-02 1.2867855e-01 
1.1325828e-01 8.9018591e-02 0.0000000e+00 
1.3990726e-01 9.6571006e-02 1.7000000e-01 
1.2759475e-01 5.8821987e-02 1.7000000e-01 
1.2112480e-01 4.7209982e-02 1.0334155e-01 
1.2714343e-01 1.1284745e-01 2.1465413e-02 
1.3292414e-01 7.7806599e-02 1.0565756e-01 
1.2449033e-01 1.1576770e-01 8.9868456e-03 
1.3964468e-01 9.6950315e-02 1.1049185e-01 
1.4129604e-01 9.4527394e-02 1.4661820e-01 
1.2519982e-01 9.4108239e-02 2.8036037e-02 
1.2078944e-01 4.8061542e-02 8.3532095e-02 
1.2556428e-01 7.0836768e-02 5.9279863e-02 
1.3127062e-01 7.9355270e-02 7.1442626e-02 
1.4248027e-01 9.2732809e-02 1.6122998e-01 
1.2363735e-01 4.0172208e-02 1.7000000e-01 
1.3373028e-01 1.0495814e-01 4.2070806e-02 
1.2019819e-01 7.4264005e-02 2.5299160e-02 
1.3753016e-01 7.5920738e-02 1.3628937e-01 
1.3238893e-01 7.1370549e-02 8.9776114e-02 
1.1084322e-01 6.7924812e-02 0.0000000e+00 
1.3871598e-01 7.8236066e-02 1.7000000e-01 
1.2234136e-01 1.0195880e-01 0.0000000e+00 
1.2447944e-01 3.7481602e-02 1.4591913e-01 
1.3499250e-01 6.4509094e-02 1.4158909e-01 
1.1342962e-01 6.3511588e-02 1.0239899e-02 
1.3114251e-01 5.3084120e-02 1.5693840e-01 
1.2118326e-01 4.7059726e-02 6.3730575e-02 
1.2512627e-01 3.5262126e-02 1.5926102e-01 
1.2802362e-01 9.8685138e-02 1.4983574e-02 
1.2724683e-01 1.1273085e-01 0.0000000e+00 
1.2824570e-01 7.4488424e-02 4.2848822e-02 
1.2501737e-01 6.2834091e-02 4.6385258e-02 
1.3257793e-01 8.0082655e-02 5.3244177e-02 
1.3137427e-01 4.8903156e-02 1.3743319e-01 
1.1710428e-01 5.6449857e-02 2.3764458e-02 
1.1849212e-01 8.0137745e-02 0.0000000e+00 
1.3005313e-01 1.0948142e-01 8.1236344e-03 
1.4146639e-01 7.4657954e-02 1.5635949e-01 
1.4528279e-01 8.8277459e-02 1.2769137e-01 
1.3181654e-01 4.8629690e-02 1.7000000e-01 
1.4548282e-01 8.7947428e-02 1.7000000e-01 
1.4007767e-01 9.6323654e-02 5.9214875e-02 
1.3199802e-01 6.2249668e-02 7.4022695e-02 
1.2607968e-01 3.1684611e-02 1.3190708e-01 
1.2104103e-01 4.7424361e-02 4.4242695e-02 
1.2592342e-01 3.2300007e-02 1.1203471e-01 
1.2640809e-01 3.0347897e-02 1.7000000e-01 
1.2585050e-01 6.2331352e-02 3.6941178e-02 
1.4022040e-01 6.5927736e-02 1.1747769e-01 
1.4546284e-01 8.7980472e-02 9.3424097e-02 
1.2561129e-01 7.7000365e-02 1.2179720e-02 
1.4318667e-01 6.9717862e-02 1.7000000e-01 
1.4807793e-01 8.3504051e-02 1.5969761e-01 
1.3055919e-01 8.9453891e-02 1.4036820e-02 
1.1583085e-01 5.9018765e-02 0.0000000e+00 
1.2607968e-01 3.1684611e-02 9.2162356e-02 
1.2827428e-01 9.4385996e-02 0.0000000e+00 
1.1788808e-01 5.4794163e-02 8.9085549e-03 
1.2750714e-01 2.5336364e-02 1.5902980e-01 
1.3503413e-01 4.2866778e-02 1.5494223e-01 
1.4575341e-01 8.7498255e-02 7.6442875e-02 
1.3672091e-01 5.3657878e-02 8.9452751e-02 
1.2609614e-01 3.1619046e-02 7.5041398e-02 
1.3382119e-01 1.0484221e-01 0.0000000e+00 
1.2258630e-01 6.8651624e-02 0.0000000e+00 
1.2834190e-01 2.0696836e-02 1.4310865e-01 
1.5052752e-01 7.9002939e-02 1.7000000e-01 
1.3692863e-01 1.0074994e-01 1.0165911e-02 
1.2839949e-01 2.0336481e-02 1.7000000e-01 
1.4089604e-01 4.8952345e-02 1.4161591e-01 
1.5040961e-01 7.9227202e-02 1.1044018e-01 
1.5142059e-01 7.7277437e-02 1.4659207e-01 
1.4516167e-01 6.5607093e-02 9.9834330e-02 
1.3940112e-01 4.3751653e-02 1.2310787e-01 
1.3797902e-01 8.0321677e-02 2.9454768e-02 
1.2596135e-01 3.2151796e-02 5.5208024e-02 
1.2676626e-01 6.4829409e-02 7.5136092e-03 
1.4111131e-01 9.4802931e-02 2.3101479e-02 
1.3880852e-01 6.5110527e-02 5.2715726e-02 
1.3625483e-01 3.2694180e-02 1.6266952e-01 
1.4713490e-01 6.0945272e-02 1.7000000e-01 
1.2910245e-01 1.5249836e-02 1.5872698e-01 
1.4632314e-01 5.7344131e-02 1.3275917e-01 
1.5257853e-01 7.4965276e-02 1.6115528e-01 
1.2902041e-01 1.5929069e-02 1.2107164e-01 
1.4528279e-01 8.8277459e-02 4.2308621e-02 
1.2010434e-01 4.9748845e-02 0.0000000e+00 
1.3990401e-01 3.9243050e-02 1.7000000e-01 
1.3321316e-01 4.0360402e-02 6.5480575e-02 
1.2197248e-01 4.4974595e-02 1.0538418e-02 
1.3373913e-01 8.6468786e-02 0.0000000e+00 
1.4274576e-01 4.8686352e-02 1.0595239e-01 
1.5321234e-01 7.3661253e-02 1.2874711e-01 
1.2902041e-01 1.5929069e-02 1.0299777e-01 
1.4774336e-01 5.5314168e-02 1.5531141e-01 
1.3588177e-01 5.4202434e-02 4.4725046e-02 
1.2420049e-01 3.8395822e-02 2.1191018e-02 
1.4787701e-01 6.6138402e-02 8.2079321e-02 
1.2959926e-01 1.0199683e-02 1.7000000e-01 
1.4735524e-01 5.0591063e-02 1.2015517e-01 
1.3990726e-01 9.6571006e-02 0.0000000e+00 
1.2908627e-01 1.5386136e-02 8.4061854e-02 
1.2759475e-01 5.8821987e-02 0.0000000e+00 
1.5502298e-01 6.9770180e-02 1.7000000e-01 
1.4139496e-01 3.2056659e-02 1.3722906e-01 
1.4244412e-01 9.2788331e-02 8.7139579e-03 
1.3859025e-01 6.4604878e-02 2.6612295e-02 
1.5068589e-01 7.8700453e-02 5.9032861e-02 
1.4795284e-01 4.4653036e-02 1.5803717e-01 
1.5054625e-01 5.1950295e-02 1.7000000e-01 
1.3271081e-01 5.4509833e-02 1.3489263e-02 
1.4123225e-01 2.7304886e-02 1.7000000e-01 
1.2902041e-01 1.5929069e-02 6.4176366e-02 
1.2363735e-01 4.0172208e-02 0.0000000e+00 
1.4553200e-01 5.0004750e-02 7.3865712e-02 
1.2512627e-01 3.5262126e-02 1.0738979e-02 
1.3000000e-01 0.0000000e+00 1.4490493e-01 
1.5706539e-01 6.5041997e-02 1.5948677e-01 
1.3000000e-01 0.0000000e+00 1.5841560e-01 
1.3000000e-01 0.0000000e+00 1.7000000e-01 
1.3000000e-01 0.0000000e+00 1.2963311e-01 
1.3871598e-01 7.8236066e-02 0.0000000e+00 
1.4059316e-01 2.2922777e-02 1.1339025e-01 
1.3000000e-01 0.0000000e+00 1.1251017e-01 
1.4216915e-01 7.3180407e-02 1.3410386e-02 
1.3952681e-01 1.6514087e-02 1.7000000e-01 
1.5763535e-01 6.3648231e-02 1.1273239e-01 
1.3362502e-01 3.1310625e-02 3.7005741e-02 
1.2905549e-01 1.5642282e-02 4.6852272e-02 
1.4174747e-01 2.8932435e-02 8.3758943e-02 
1.4393528e-01 2.2854721e-02 1.5372136e-01 
1.3000000e-01 0.0000000e+00 9.3485378e-02 
1.5895276e-01 6.0282830e-02 1.7000000e-01 
1.3336788e-01 4.2660195e-02 1.4072347e-02 
1.3866572e-01 4.6238147e-02 2.7919423e-02 
1.5756115e-01 6.3831672e-02 9.4370052e-02 
1.3181654e-01 4.8629690e-02 0.0000000e+00 
1.4548282e-01 8.7947428e-02 0.0000000e+00 
1.2834190e-01 2.0696836e-02 2.6891354e-02 
1.5340826e-01 4.2765759e-02 1.7000000e-01 
1.5979695e-01 5.8008056e-02 1.4569423e-01 
1.4807793e-01 8.3504051e-02 1.0302399e-02 
1.5523702e-01 4.4136379e-02 1.3314484e-01 
1.3000000e-01 0.0000000e+00 7.3310070e-02 
1.2750714e-01 2.5336364e-02 1.0970207e-02 
1.2640809e-01 3.0347897e-02 0.0000000e+00 
1.6053772e-01 5.5925325e-02 1.6087392e-01 
1.5758991e-01 6.3760646e-02 7.2803795e-02 
1.5383969e-01 3.6881659e-02 1.5459880e-01 
1.5165420e-01 7.6818004e-02 2.3386728e-02 
1.4318667e-01 6.9717862e-02 0.0000000e+00 
1.5222014e-01 4.0295068e-02 8.9521110e-02 
1.4833659e-01 3.6104091e-02 7.2572500e-02 
1.5486683e-01 7.0116095e-02 4.1384738e-02 
1.5128756e-01 3.3419602e-02 1.0261830e-01 
1.5296957e-01 3.3626433e-02 1.1994990e-01 
1.4930621e-01 4.3188859e-02 5.6100029e-02 
1.3000000e-01 0.0000000e+00 5.5042662e-02 
1.3978937e-01 0.0000000e+00 1.7000000e-01 
1.5310623e-01 2.7594406e-02 1.3986251e-01 
1.5770954e-01 6.3464180e-02 5.4466862e-02 
1.4266296e-01 2.3994843e-02 5.5396304e-02 
1.5150611e-01 5.2797701e-02 4.2276107e-02 
1.6230255e-01 5.0575521e-02 1.7000000e-01 
1.5571050e-01 3.3425175e-02 1.7000000e-01 
1.4094679e-01 3.3914246e-02 2.4256367e-02 
1.2910245e-01 1.5249836e-02 1.1273025e-02 
1.5052752e-01 7.9002939e-02 0.0000000e+00 
1.4253925e-01 0.0000000e+00 1.5782446e-01 
1.2839949e-01 2.0336481e-02 0.0000000e+00 
1.3625483e-01 3.2694180e-02 7.3304749e-03 
1.5035246e-01 1.6711297e-02 1.2607133e-01 
1.3000000e-01 0.0000000e+00 3.8661879e-02 
1.5262385e-01 7.4872956e-02 8.8404715e-03 
1.6322422e-01 4.7516860e-02 1.2294292e-01 
1.4827299e-01 5.5123240e-02 1.5077543e-02 
1.6376136e-01 4.5631293e-02 1.5918861e-01 
1.5014139e-01 1.7683445e-02 9.8179638e-02 
1.3745880e-01 1.1188572e-02 3.9786972e-02 
1.4713490e-01 6.0945272e-02 0.0000000e+00 
1.6336815e-01 4.7019653e-02 1.0345135e-01 
1.4917651e-01 3.6966234e-02 3.7788834e-02 
1.3990401e-01 3.9243050e-02 0.0000000e+00 
1.5304570e-01 2.4033040e-02 8.3864875e-02 
1.3000000e-01 0.0000000e+00 2.4099844e-02 
1.5565842e-01 1.8978210e-02 1.5324691e-01 
1.5744458e-01 2.3962626e-02 1.7000000e-01 
1.6310829e-01 4.7913294e-02 8.3645821e-02 
1.6506010e-01 4.0683664e-02 1.7000000e-01 
1.2959926e-01 1.0199683e-02 0.0000000e+00 
1.5020955e-01 1.7587235e-02 6.9471918e-02 
1.6574860e-01 3.7780970e-02 1.4573920e-01 
1.5502298e-01 6.9770180e-02 0.0000000e+00 
1.5005377e-01 0.0000000e+00 1.4106865e-01 
1.3000000e-01 0.0000000e+00 1.1254295e-02 
1.5007211e-01 0.0000000e+00 1.7000000e-01 
1.5706539e-01 6.5041997e-02 1.0513231e-02 
1.5515769e-01 1.0563115e-02 1.7000000e-01 
1.6621837e-01 3.5657465e-02 1.5900578e-01 
1.4338496e-01 1.6162802e-02 3.0395484e-02 
1.6340609e-01 4.6887640e-02 6.3847385e-02 
1.5461482e-01 9.8775327e-03 1.1226116e-01 
1.5054625e-01 5.1950295e-02 0.0000000e+00 
1.4393528e-01 2.2854721e-02 1.6278639e-02 
1.4123225e-01 2.7304886e-02 0.0000000e+00 
1.6002023e-01 5.7389248e-02 2.3937415e-02 
1.5463080e-01 9.7099645e-03 9.3608268e-02 
1.5267949e-01 0.0000000e+00 1.2111750e-01 
1.6705661e-01 3.1497452e-02 1.3197434e-01 
1.3000000e-01 0.0000000e+00 0.0000000e+00 
1.6721538e-01 3.0643357e-02 1.7000000e-01 
1.6693686e-01 3.2126103e-02 1.1210384e-01 
1.6329540e-01 4.7271676e-02 4.4367887e-02 
1.5267949e-01 0.0000000e+00 1.0309017e-01 
1.5076971e-01 1.8600054e-02 3.8544081e-02 
1.5515769e-01 0.0000000e+00 1.5943688e-01 
1.3952681e-01 1.6514087e-02 0.0000000e+00 
1.6705661e-01 3.1497452e-02 9.2233337e-02 
1.6806845e-01 2.5553811e-02 1.5879679e-01 
1.5895276e-01 6.0282830e-02 0.0000000e+00 
1.6070662e-01 5.5438090e-02 1.0649818e-02 
1.5325859e-01 0.0000000e+00 8.4189557e-02 
1.5533073e-01 3.7567940e-02 1.4483960e-02 
1.5340826e-01 4.2765759e-02 0.0000000e+00 
1.6706727e-01 3.1440850e-02 7.5179808e-02 
1.5462285e-01 9.7942213e-03 5.5466603e-02 
1.6872719e-01 2.0763783e-02 1.4257172e-01 
1.6876051e-01 2.0491235e-02 1.7000000e-01 
1.5267949e-01 0.0000000e+00 6.4301521e-02 
1.6024326e-01 0.0000000e+00 1.7000000e-01 
1.5046245e-01 0.0000000e+00 4.6636838e-02 
1.6696355e-01 3.1987082e-02 5.5344936e-02 
1.4253925e-01 0.0000000e+00 1.1954659e-02 
1.6930492e-01 1.5357123e-02 1.5856135e-01 
1.6925851e-01 1.5860533e-02 1.2111750e-01 
1.3978937e-01 0.0000000e+00 0.0000000e+00 
1.6230255e-01 5.0575521e-02 0.0000000e+00 
1.5571050e-01 3.3425175e-02 0.0000000e+00 
1.6376136e-01 4.5631293e-02 1.0811393e-02 
1.6925851e-01 1.5860533e-02 1.0309017e-01 
1.5565842e-01 1.8978210e-02 1.6753089e-02 
1.5009516e-01 0.0000000e+00 2.7883887e-02 
1.6968985e-01 1.0264345e-02 1.7000000e-01 
1.6553982e-01 3.8685508e-02 2.1457069e-02 
1.6930804e-01 1.5322833e-02 8.4188722e-02 
1.6925851e-01 1.5860533e-02 6.4301521e-02 
1.5744458e-01 2.3962626e-02 0.0000000e+00 
1.7000000e-01 0.0000000e+00 1.4490442e-01 
1.7000000e-01 0.0000000e+00 1.5839991e-01 
1.7000000e-01 0.0000000e+00 1.7000000e-01 
1.7000000e-01 0.0000000e+00 1.2965921e-01 
1.6621837e-01 3.5657465e-02 1.0994227e-02 
1.6506010e-01 4.0683664e-02 0.0000000e+00 
1.7000000e-01 0.0000000e+00 1.1257580e-01 
1.5007211e-01 0.0000000e+00 0.0000000e+00 
1.6928345e-01 1.5592080e-02 4.6965536e-02 
1.5515769e-01 1.0563115e-02 0.0000000e+00 
1.7000000e-01 0.0000000e+00 9.3604550e-02 
1.6872719e-01 2.0763783e-02 2.7428288e-02 
1.7000000e-01 0.0000000e+00 7.3438078e-02 
1.5715830e-01 0.0000000e+00 1.2551603e-02 
1.6806845e-01 2.5553811e-02 1.1203207e-02 
1.6721538e-01 3.0643357e-02 0.0000000e+00 
1.7000000e-01 0.0000000e+00 5.5164967e-02 
1.6930492e-01 1.5357123e-02 1.1438652e-02 
1.6876051e-01 2.0491235e-02 0.0000000e+00 
1.7000000e-01 0.0000000e+00 3.8766108e-02 
1.6024326e-01 0.0000000e+00 0.0000000e+00 
1.7000000e-01 0.0000000e+00 2.4176063e-02 
1.6968985e-01 1.0264345e-02 0.0000000e+00 
1.7000000e-01 0.0000000e+00 1.1295007e-02 
1.7000000e-01 0.0000000e+00 0.0000000e+00 

CELLS 8485 42425
4 1054 1067 1076 946
4 1851 1862 1873 1874
4 1383 1402 1368 1318
4 1947 1946 1925 1954
4 2056 2026 2049 2012
4 1076 1054 946 1060
4 2056 2026 2012 2024
4 1120 1088 1151 1207
4 1120 1088 1207 1023
4 1368 1383 1318 1326
4 1883 1909 1902 1880
4 1883 1909 1880 1901
4 641 657 652 717
4 641 657 717 648
4 1873 1851 1874 1860
4 1925 1947 1954 1923
4 1054 1067 946 1046
4 1402 1368 1318 1394
4 2049 2056 2012 2083
4 1902 1883 1880 1868
4 1851 1862 1874 1833
4 1946 1925 1954 1916
4 1151 1120 1207 1186
4 652 641 717 638
4 1067 1076 946 1105
4 2026 2049 2012 2014
4 1383 1402 1318 1419
4 1909 1902 1880 1932
4 1862 1873 1874 1895
4 1088 1151 1207 1115
4 1947 1946 1954 1975
4 657 652 717 675
4 1760 1730 1742 1737
4 1152 1205 1164 1081
4 2039 2005 2010 2055
4 1770 1798 1785 1799
4 1388 1391 1351 1292
4 1431 1454 1417 1390
4 1882 1854 1861 1884
4 1467 1440 1430 1406
4 1037 1032 1024 879
4 1922 1953 1935 1962
4 800 823 861 917
4 2212 2193 2187 2170
4 2106 2074 2077 2122
4 2157 2125 2120 2110
4 711 725 746 820
4 1521 1489 1484 1474
4 1984 1959 1950 1948
4 680 666 658 780
4 2086 2103 2123 2071
4 1803 1819 1841 1809
4 1073 1014 1082 1170
4 1745 1759 1773 1753
4 1376 1309 1320 1401
4 1821 1790 1796 1810
4 1275 1209 1234 1311
4 1920 1900 1888 1892
4 1395 1407 1371 1330
4 1095 1029 1080 1175
4 1960 1970 1994 1955
4 932 964 1012 1066
4 639 635 637 737
4 2021 2033 2060 2009
4 1345 1388 1351 1300
4 1742 1760 1737 1764
4 1045 1029 1095 1198
4 1889 1882 1861 1891
4 2120 2125 2087 2076
4 1440 1400 1430 1378
4 1709 1740 1723 1728
4 1988 1959 1984 1978
4 1234 1209 1159 1278
4 2005 1980 2010 2017
4 1089 1057 1061 954
4 1119 1152 1164 1049
4 1417 1431 1390 1392
4 685 725 711 787
4 1907 1922 1935 1942
4 1841 1819 1853 1842
4 1032 1027 1024 927
4 1979 2006 1996 2022
4 1943 1970 1960 1926
4 637 635 633 734
4 1798 1814 1785 1804
4 1256 1310 1279 1221
4 888 964 932 985
4 1828 1821 1796 1820
4 1027 1024 927 1018
4 2003 2033 2021 1981
4 1351 1345 1300 1301
4 1097 1051 1123 1212
4 1226 1256 1279 1189
4 1861 1889 1891 1855
4 2010 2005 2017 2055
4 2187 2193 2161 2141
4 658 666 642 742
4 2074 2044 2077 2096
4 1430 1440 1378 1406
4 1006 1014 1073 1169
4 2152 2166 2183 2129
4 1164 1119 1049 1154
4 1057 1038 1061 950
4 1320 1309 1259 1354
4 1963 1979 1996 2007
4 1814 1785 1804 1791
4 2072 2103 2086 2040
4 1400 1430 1378 1386
4 1112 1146 1202 1215
4 1489 1457 1484 1446
4 1858 1839 1827 1836
4 1152 1164 1049 1081
4 1773 1759 1786 1780
4 1353 1395 1371 1304
4 1980 2010 2017 1990
4 1740 1755 1723 1746
4 1924 1900 1920 1921
4 766 823 800 862
4 1935 1907 1942 1928
4 1922 1935 1942 1962
4 1440 1378 1406 1363
4 1378 1406 1363 1278
4 1388 1351 1300 1292
4 1900 1864 1888 1892
4 1760 1730 1737 1750
4 1024 1032 927 879
4 1014 1011 1082 1170
4 1431 1454 1390 1366
4 1049 1152 1081 994
4 1081 1049 994 862
4 1882 1861 1891 1884
4 1730 1742 1737 1704
4 2137 2166 2152 2100
4 1785 1798 1804 1799
4 1454 1417 1390 1439
4 1059 1146 1112 1215
4 1484 1489 1446 1474
4 1489 1446 1474 1422
4 1446 1474 1422 1401
4 2077 2074 2096 2122
4 2074 2096 2122 2084
4 2096 2122 2084 2170
4 2074 2096 2084 2044
4 1821 1796 1820 1810
4 1820 1821 1810 1852
4 1810 1820 1852 1836
4 1371 1353 1304 1315
4 1279 1226 1189 1268
4 1996 1963 2007 1986
4 1796 1828 1820 1789
4 1038 1061 950 1055
4 1395 1371 1304 1330
4 1304 1395 1330 1287
4 1330 1304 1287 1212
4 1457 1484 1446 1452
4 2044 2077 2096 2054
4 1755 1723 1746 1729
4 1256 1279 1189 1221
4 1189 1256 1221 1109
4 1221 1189 1109 1066
4 1979 1996 2007 2022
4 2007 1979 2022 1995
4 2022 2007 1995 2071
4 2007 1979 1995 1963
4 1368 1394 1345 1314
4 1925 1916 1889 1919
4 1061 1057 950 954
4 1057 950 954 875
4 950 954 875 780
4 1723 1740 1746 1728
4 1740 1746 1728 1766
4 1746 1728 1766 1753
4 1046 1054 1027 921
4 1833 1851 1814 1846
4 2005 1975 1980 2017
4 1803 1786 1819 1809
4 1371 1407 1392 1330
4 1440 1419 1400 1378
4 1796 1790 1764 1810
4 1861 1854 1828 1856
4 638 633 641 734
4 1925 1916 1919 1954
4 1919 1925 1954 1923
4 1351 1391 1353 1298
4 2083 2087 2056 2076
4 725 766 746 820
4 1798 1833 1814 1804
4 1378 1430 1406 1369
4 1959 1924 1950 1948
4 1032 1046 1027 921
4 1467 1430 1457 1406
4 2039 2010 2044 2084
4 2033 2072 2060 2009
4 1275 1259 1209 1311
4 1029 1006 1080 1175
4 1916 1882 1889 1891
4 1521 1484 1511 1474
4 1394 1388 1345 1314
4 2106 2077 2109 2122
4 1935 1953 1963 1995
4 1833 1851 1846 1874
4 1851 1846 1874 1860
4 823 888 861 917
4 1164 1205 1226 1081
4 1868 1853 1883 1842
4 1186 1159 1120 1278
4 1895 1922 1907 1942
4 1164 1049 1081 1085
4 1970 2003 1994 1955
4 1105 1152 1119 1049
4 1037 1024 1038 925
4 1770 1785 1755 1779
4 2157 2161 2125 2110
4 639 642 635 737
4 746 766 800 862
4 1892 1888 1863 1864
4 2141 2157 2110 2161
4 734 737 637 635
4 1932 1943 1960 1926
4 869 928 812 777
4 995 1070 948 899
4 1948 1950 1921 1924
4 1391 1395 1353 1304
4 2222 2239 2199 2216
4 787 759 675 685
4 2266 2282 2257 2271
4 1796 1820 1810 1784
4 2103 2137 2123 2071
4 1863 1858 1836 1839
4 928 995 870 835
4 964 1059 1012 1104
4 2170 2187 2141 2193
4 1278 1186 1245 1207
4 1245 1278 1207 1289
4 1207 1245 1289 1343
4 1245 1278 1289 1363
4 1926 1899 1932 1943
4 1994 2003 2021 1981
4 1921 1920 1892 1900
4 917 862 800 823
4 1632 1599 1613 1630
4 1089 1061 1100 954
4 1953 1979 1963 1995
4 1170 1082 1178 1011
4 759 741 652 717
4 759 741 717 847
4 741 652 717 638
4 652 759 717 675
4 675 685 711 787
4 2159 2129 2183 2166
4 2257 2272 2243 2258
4 658 642 639 742
4 1751 1734 1720 1741
4 1531 1502 1503 1462
4 1506 1464 1473 1482
4 1506 1464 1482 1512
4 1950 1924 1920 1921
4 1691 1661 1682 1695
4 1354 1275 1311 1259
4 1955 1926 1960 1970
4 1854 1821 1828 1820
4 1205 1256 1226 1189
4 1753 1721 1745 1759
4 1693 1679 1666 1681
4 1745 1726 1759 1721
4 1899 1865 1902 1880
4 1899 1865 1880 1872
4 1865 1902 1880 1868
4 1902 1899 1880 1932
4 1175 1080 1169 1006
4 680 690 666 761
4 1503 1465 1472 1415
4 1666 1649 1637 1636
4 1637 1666 1636 1647
4 1464 1412 1418 1387
4 1446 1484 1474 1456
4 1773 1786 1803 1780
4 1245 1151 1219 1207
4 1219 1245 1207 1343
4 1245 1151 1207 1186
4 1151 1219 1207 1115
4 2009 1981 2021 2033
4 1709 1723 1688 1728
4 2100 2071 2123 2137
4 1981 1955 1994 2003
4 1559 1532 1531 1497
4 1080 1006 1073 1169
4 1721 1691 1713 1726
4 1637 1620 1606 1601
4 1320 1259 1275 1354
4 2199 2212 2170 2193
4 1842 1809 1841 1819
4 2076 2083 2041 2012
4 2041 2076 2012 2020
4 2120 2087 2083 2076
4 1802 1793 1777 1797
4 2071 2040 2086 2103
4 862 820 746 766
4 1057 1037 1038 950
4 2074 2039 2044 2084
4 2110 2120 2076 2125
4 2184 2159 2208 2196
4 2212 2216 2193 2199
4 1371 1304 1330 1272
4 737 742 639 642
4 1583 1562 1559 1530
4 1376 1365 1309 1398
4 1777 1765 1751 1769
4 1780 1753 1773 1759
4 2041 2049 2008 2012
4 2008 2041 2012 1991
4 2041 2049 2012 2083
4 2049 2008 2012 2014
4 2187 2161 2157 2141
4 2129 2100 2152 2166
4 1606 1590 1583 1582
4 1583 1606 1582 1614
4 2206 2184 2230 2218
4 1996 2006 2018 2022
4 1978 1984 1948 1959
4 1809 1780 1803 1786
4 2040 2009 2060 2072
4 1234 1159 1186 1278
4 1836 1827 1802 1797
4 1865 1842 1868 1880
4 1865 1842 1880 1838
4 861 888 932 985
4 820 787 711 725
4 1283 1241 1317 1161
4 1364 1329 1403 1264
4 1841 1853 1868 1842
4 1285 1215 1202 1146
4 1169 1073 1170 1014
4 1570 1537 1551 1558
4 1570 1537 1558 1549
4 1279 1310 1335 1221
4 1740 1770 1755 1746
4 1537 1506 1518 1514
4 1317 1284 1364 1210
4 1115 1045 1095 1198
4 1219 1115 1198 1045
4 1412 1346 1347 1305
4 1489 1467 1457 1446
4 1311 1234 1278 1209
4 741 734 638 717
4 741 734 717 847
4 1720 1708 1693 1710
4 2096 2077 2122 2130
4 2060 2072 2086 2040
4 1599 1570 1581 1596
4 2008 2014 1978 1988
4 2014 1988 1984 1978
4 2243 2256 2222 2240
4 1661 1632 1651 1664
4 1346 1285 1276 1237
4 637 633 638 734
4 985 917 861 888
4 1198 1095 1175 1029
4 2274 2287 2276 2280
4 2215 2217 2249 2235
4 2166 2196 2183 2159
4 1279 1189 1221 1238
4 1032 1027 927 921
4 927 1032 921 879
4 921 927 879 734
4 1293 1265 1242 1195
4 1861 1854 1856 1884
4 1676 1709 1688 1697
4 1012 1059 1112 1104
4 1310 1374 1335 1291
4 1713 1726 1745 1721
4 1345 1388 1300 1314
4 1388 1300 1314 1292
4 1300 1314 1292 1169
4 2133 2106 2109 2156
4 1123 1078 1155 1246
4 950 1061 954 934
4 1407 1431 1392 1362
4 2239 2216 2212 2199
4 1873 1895 1907 1908
4 657 685 675 717
4 1419 1383 1400 1336
4 2026 1988 2014 2012
4 1483 1508 1463 1477
4 1424 1365 1376 1398
4 1770 1785 1779 1799
4 1539 1521 1511 1507
4 1351 1391 1298 1292
4 1088 1045 1115 1207
4 2006 2034 2018 2059
4 1076 1105 1119 966
4 2123 2137 2152 2100
4 717 759 847 685
4 1790 1760 1764 1782
4 719 690 680 761
4 1746 1723 1728 1711
4 1130 1089 1100 993
4 1827 1797 1793 1802
4 1037 1024 925 879
4 1975 1947 1980 1987
4 1146 1237 1202 1285
4 1996 2007 2022 2045
4 1909 1943 1932 1880
4 2133 2109 2135 2156
4 2287 2291 2289 2290
4 1219 1207 1115 1045
4 1424 1415 1365 1472
4 2005 2017 2055 2020
4 2017 2055 2020 2076
4 1713 1691 1682 1695
4 2282 2272 2257 2271
4 2239 2240 2216 2222
4 1899 1880 1932 1943
4 1454 1390 1366 1411
4 2056 2012 2083 2076
4 1535 1511 1516 1501
4 1535 1511 1501 1539
4 1300 1345 1314 1258
4 1793 1769 1765 1777
4 1027 927 921 847
4 1309 1376 1398 1401
4 1730 1737 1750 1715
4 1737 1750 1715 1784
4 1172 1130 1145 997
4 1590 1562 1583 1561
4 2247 2206 2230 2238
4 1155 1114 1194 1267
4 1765 1734 1751 1741
4 1120 1207 1186 1278
4 1651 1632 1613 1630
4 2165 2133 2135 2202
4 1676 1688 1657 1678
4 1688 1657 1678 1665
4 1737 1760 1750 1782
4 1750 1737 1782 1784
4 1734 1708 1720 1710
4 1497 1469 1462 1492
4 2008 2012 2014 1988
4 1012 964 1104 1066
4 1390 1431 1366 1362
4 1366 1390 1362 1272
4 1390 1431 1362 1392
4 2230 2184 2208 2218
4 2271 2263 2258 2242
4 1942 1922 1962 1937
4 1962 1942 1937 1981
4 2285 2282 2266 2281
4 2249 2262 2269 2268
4 1465 1424 1472 1415
4 1682 1661 1651 1664
4 1864 1839 1858 1863
4 1888 1858 1863 1864
4 1335 1374 1399 1359
4 946 1054 1046 921
4 1473 1464 1418 1443
4 1011 1051 1097 1178
4 666 680 761 780
4 759 717 675 685
4 2034 2066 2047 2107
4 2135 2109 2116 2153
4 2135 2109 2153 2156
4 870 995 948 899
4 1476 1478 1515 1490
4 719 731 690 799
4 731 690 799 720
4 1241 1284 1317 1210
4 1613 1599 1581 1596
4 1402 1419 1343 1318
4 1343 1402 1318 1324
4 1318 1343 1324 1198
4 1402 1318 1324 1394
4 1713 1695 1726 1691
4 1347 1346 1276 1305
4 1649 1620 1637 1636
4 1883 1880 1868 1842
4 1130 1100 1145 993
4 1562 1532 1559 1530
4 1518 1506 1473 1482
4 2189 2209 2236 2186
4 1502 1465 1503 1462
4 2272 2256 2243 2258
4 757 869 812 777
4 1374 1428 1399 1359
4 1082 1097 1178 1011
4 757 731 719 849
4 1581 1570 1551 1568
4 641 717 638 734
4 1329 1385 1403 1312
4 1643 1676 1657 1678
4 1539 1567 1534 1535
4 2256 2240 2239 2222
4 1551 1537 1518 1558
4 1067 971 1105 946
4 1067 971 946 941
4 971 946 941 847
4 946 1067 941 1046
4 946 941 847 921
4 1679 1649 1666 1652
4 1418 1412 1347 1387
4 812 928 870 835
4 1194 1241 1283 1161
4 1592 1617 1593 1591
4 1797 1769 1793 1777
4 1284 1329 1364 1264
4 1368 1318 1394 1314
4 948 1070 1026 981
4 1708 1679 1693 1681
4 1078 1114 1155 1192
4 1078 1114 1192 1028
4 2208 2159 2183 2196
4 1532 1502 1531 1497
4 2088 2145 2118 2101
4 2018 2034 2047 2059
4 1276 1285 1202 1237
4 1620 1590 1606 1582
4 757 777 731 869
4 1785 1755 1779 1791
4 2229 2255 2209 2214
4 1066 985 932 964
4 1889 1925 1919 1923
4 1651 1630 1664 1632
4 1428 1476 1451 1421
4 1608 1643 1628 1623
4 1682 1664 1695 1661
4 1401 1320 1354 1309
4 812 835 777 928
4 1643 1657 1628 1642
4 1657 1628 1642 1665
4 1851 1814 1846 1860
4 2139 2118 2178 2138
4 1769 1741 1765 1751
4 2258 2271 2242 2257
4 1508 1527 1504 1510
4 1237 1305 1276 1346
4 1567 1535 1566 1534
4 2047 2066 2078 2099
4 2078 2047 2099 2042
4 1440 1378 1363 1419
4 1462 1497 1492 1531
4 2196 2218 2208 2184
4 2189 2165 2164 2224
4 1454 1480 1439 1411
4 1114 1161 1194 1283
4 1353 1351 1298 1301
4 1293 1286 1337 1334
4 742 780 658 666
4 1429 1459 1385 1396
4 1839 1797 1827 1836
4 1161 1210 1241 1317
4 1399 1428 1451 1359
4 2066 2088 2078 2131
4 941 946 1046 921
4 1178 1097 1212 1051
4 690 666 761 654
4 1741 1710 1734 1720
4 1592 1567 1566 1564
4 1126 1026 1180 1116
4 1828 1861 1856 1855
4 1051 1078 1123 1212
4 2256 2258 2240 2243
4 1267 1194 1283 1114
4 1365 1309 1398 1248
4 1502 1497 1462 1531
4 2165 2135 2164 2190
4 2135 2164 2190 2116
4 1172 1145 1199 1079
4 1145 1199 1079 1135
4 1049 1152 994 1105
4 2272 2271 2258 2257
4 1233 1172 1199 1079
4 1730 1703 1704 1715
4 1318 1324 1394 1314
4 1465 1462 1415 1503
4 849 869 757 731
4 1024 1038 925 1018
4 1233 1199 1251 1147
4 1874 1862 1895 1906
4 1710 1681 1708 1693
4 1161 1148 1210 1244
4 1210 1161 1244 1317
4 2078 2088 2101 2145
4 1916 1889 1919 1891
4 1889 1919 1891 1898
4 2022 2059 2006 2018
4 1507 1539 1534 1501
4 1199 1251 1147 1223
4 870 899 835 995
4 2096 2084 2044 2070
4 993 954 1089 1100
4 1946 1954 1975 1991
4 2282 2281 2271 2266
4 1862 1874 1833 1872
4 1608 1628 1594 1603
4 1628 1594 1603 1607
4 1305 1387 1347 1412
4 1221 1291 1310 1335
4 964 1059 1104 945
4 1419 1343 1318 1336
4 1343 1318 1336 1289
4 1419 1343 1336 1363
4 1343 1336 1363 1289
4 1336 1363 1289 1378
4 1336 1363 1378 1419
4 1363 1289 1378 1278
4 1363 1343 1289 1245
4 1451 1476 1490 1478
4 1419 1383 1336 1318
4 1383 1336 1318 1326
4 1362 1407 1330 1392
4 2218 2238 2230 2206
4 2189 2164 2186 2236
4 1210 1264 1284 1364
4 1814 1833 1846 1804
4 1846 1814 1804 1824
4 1474 1521 1507 1511
4 1291 1359 1374 1335
4 1975 1947 1987 1954
4 1947 1987 1954 1923
4 971 1105 946 966
4 946 971 966 847
4 971 1105 966 994
4 1439 1480 1470 1408
4 1470 1439 1408 1416
4 1995 2007 1963 1983
4 1076 1105 966 946
4 966 1076 946 1060
4 2122 2106 2156 2109
4 1613 1596 1630 1599
4 1954 1946 1916 1958
4 1390 1366 1411 1244
4 1532 1530 1497 1559
4 1704 1703 1675 1689
4 1675 1704 1689 1674
4 1873 1895 1908 1874
4 1908 1873 1874 1860
4 1741 1707 1710 1716
4 1710 1741 1716 1720
4 1592 1566 1591 1593
4 1038 1037 925 950
4 925 1038 950 906
4 1497 1469 1492 1530
4 1286 1233 1251 1147
4 680 761 780 822
4 761 780 822 934
4 1891 1882 1884 1918
4 1884 1891 1918 1921
4 1562 1561 1530 1583
4 1980 1975 1987 2017
4 1987 1980 2017 1997
4 1581 1568 1596 1570
4 1579 1608 1594 1603
4 1895 1907 1908 1942
4 1907 1908 1942 1931
4 1264 1312 1329 1403
4 1400 1419 1336 1378
4 1336 1400 1378 1295
4 2238 2253 2247 2206
4 1854 1828 1856 1820
4 1828 1856 1820 1822
4 1104 1012 1066 1158
4 1066 1104 1158 1238
4 1703 1673 1675 1689
4 1383 1400 1336 1326
4 1755 1770 1779 1746
4 1779 1755 1746 1768
4 1681 1652 1679 1666
4 2116 2135 2153 2190
4 1798 1804 1799 1838
4 1804 1799 1838 1842
4 948 981 899 1070
4 1376 1398 1401 1444
4 1398 1401 1444 1456
4 1516 1535 1501 1566
4 1907 1873 1908 1860
4 1387 1443 1418 1464
4 1947 1980 1987 1923
4 1105 1119 966 1049
4 1119 966 1049 999
4 2285 2284 2281 2266
4 1391 1353 1298 1304
4 1353 1298 1304 1235
4 1480 1504 1470 1408
4 2271 2263 2242 2281
4 1119 1076 966 1060
4 2017 2010 2055 2070
4 1764 1742 1732 1749
4 1764 1742 1749 1737
4 1742 1749 1737 1732
4 2247 2253 2262 2217
4 1376 1398 1444 1424
4 1105 966 994 1049
4 2289 2284 2285 2276
4 1392 1417 1373 1325
4 1392 1417 1325 1390
4 1417 1325 1390 1439
4 1935 1942 1962 1983
4 1104 1012 1158 1112
4 690 719 799 761
4 799 690 761 790
4 1593 1617 1614 1591
4 2135 2153 2190 2202
4 1551 1570 1558 1568
4 1558 1551 1568 1514
4 1707 1710 1716 1681
4 1676 1688 1678 1697
4 1478 1512 1515 1490
4 1666 1649 1636 1652
4 1649 1636 1652 1601
4 1155 1078 1192 1246
4 759 741 847 941
4 2005 2017 2020 1975
4 1590 1583 1582 1561
4 1582 1590 1561 1601
4 1464 1473 1482 1443
4 1473 1482 1443 1514
4 1148 1210 1244 1264
4 1874 1862 1906 1872
4 1906 1874 1872 1904
4 1942 1922 1937 1895
4 1946 1954 1991 1958
4 1954 1991 1958 1971
4 964 1104 1066 1033
4 1564 1592 1593 1566
4 1421 1478 1476 1451
4 719 731 799 849
4 799 719 849 822
4 849 799 822 934
4 1583 1582 1561 1530
4 1582 1561 1530 1526
4 1398 1309 1401 1327
4 761 666 780 769
4 1636 1666 1652 1681
4 1652 1636 1681 1648
4 1114 1155 1192 1267
4 1155 1192 1267 1246
4 1192 1267 1246 1272
4 680 761 822 719
4 1482 1464 1443 1387
4 1443 1482 1387 1414
4 1570 1558 1568 1596
4 1558 1568 1596 1580
4 941 847 921 741
4 1891 1882 1918 1916
4 1779 1770 1799 1766
4 1799 1779 1766 1809
4 1351 1300 1292 1298
4 1300 1292 1298 1182
4 1351 1300 1298 1301
4 1628 1643 1642 1623
4 2165 2135 2190 2202
4 1916 1919 1954 1958
4 1919 1954 1958 1971
4 925 1037 879 875
4 879 925 875 737
4 1861 1891 1884 1856
4 1891 1884 1856 1879
4 1861 1891 1856 1855
4 1172 1145 1079 997
4 2047 2066 2099 2107
4 1798 1804 1838 1833
4 1391 1298 1292 1287
4 1298 1292 1287 1182
4 2164 2165 2190 2224
4 927 1024 879 925
4 879 927 925 789
4 927 1024 925 1018
4 1846 1833 1874 1872
4 1874 1846 1872 1904
4 2066 2078 2099 2131
4 1804 1785 1799 1779
4 1799 1804 1779 1808
4 1804 1785 1779 1791
4 1643 1657 1642 1678
4 1657 1642 1678 1665
4 1854 1856 1884 1852
4 1856 1884 1852 1879
4 1472 1424 1444 1398
4 1444 1472 1398 1456
4 1439 1480 1408 1411
4 1057 1037 950 875
4 1318 1324 1314 1258
4 1854 1821 1820 1852
4 1673 1646 1633 1647
4 1568 1558 1514 1513
4 1391 1395 1304 1287
4 1482 1443 1514 1513
4 1620 1601 1590 1582
4 1233 1199 1147 1079
4 1199 1147 1079 1223
4 1646 1617 1633 1614
4 1704 1703 1689 1715
4 1703 1689 1715 1684
4 1689 1715 1684 1693
4 1489 1467 1446 1422
4 1561 1582 1601 1588
4 1649 1601 1620 1636
4 1740 1770 1746 1766
4 2255 2252 2274 2236
4 1636 1652 1601 1588
4 1205 1256 1189 1109
4 799 719 822 761
4 822 799 761 934
4 1215 1158 1112 1104
4 1215 1158 1104 1238
4 1608 1628 1603 1623
4 1603 1608 1623 1586
4 1623 1603 1586 1599
4 2215 2188 2178 2145
4 1066 1109 985 1033
4 2224 2189 2236 2164
4 1895 1908 1874 1906
4 1908 1874 1906 1904
4 1895 1908 1906 1937
4 1908 1906 1937 1955
4 1895 1908 1937 1942
4 1908 1937 1942 1931
4 1401 1354 1422 1327
4 2131 2145 2088 2078
4 1480 1408 1411 1463
4 1545 1579 1543 1549
4 1314 1300 1258 1169
4 1242 1193 1180 1070
4 742 875 780 769
4 2109 2116 2153 2130
4 1178 1212 1287 1173
4 1178 1212 1173 1051
4 1511 1516 1501 1456
4 1267 1283 1366 1263
4 1267 1283 1263 1114
4 849 997 869 898
4 869 849 898 731
4 1987 1975 1954 1991
4 1954 1987 1991 1971
4 1987 1975 1991 2020
4 1991 1987 2020 2012
4 1987 1975 2020 2017
4 2020 1987 2017 1997
4 1515 1545 1543 1512
4 1289 1336 1378 1295
4 1678 1676 1697 1658
4 1697 1678 1658 1691
4 1518 1514 1551 1558
4 1406 1378 1369 1278
4 1459 1432 1483 1403
4 1469 1462 1492 1367
4 1833 1846 1804 1838
4 1846 1804 1838 1824
4 1833 1846 1838 1872
4 1846 1838 1872 1880
4 1473 1514 1518 1482
4 1919 1916 1891 1918
4 1891 1919 1918 1898
4 1919 1916 1918 1958
4 1918 1919 1958 1948
4 2263 2258 2242 2225
4 2122 2096 2130 2170
4 1854 1856 1852 1820
4 1856 1852 1820 1822
4 1189 1221 1238 1066
4 1728 1746 1711 1753
4 925 1037 875 950
4 875 925 950 769
4 954 950 934 780
4 1820 1810 1784 1836
4 1779 1770 1766 1746
4 1766 1779 1746 1768
4 1742 1737 1704 1712
4 1704 1742 1712 1732
4 2165 2190 2224 2202
4 2190 2224 2202 2242
4 1760 1737 1764 1782
4 1298 1391 1304 1287
4 1304 1298 1287 1173
4 1318 1324 1258 1198
4 1474 1446 1456 1401
4 1192 1114 1267 1263
4 1267 1192 1263 1272
4 1304 1330 1272 1212
4 1782 1790 1810 1764
4 1697 1728 1709 1688
4 2007 2022 2045 2071
4 731 799 849 898
4 799 849 898 934
4 2099 2066 2131 2107
4 2131 2099 2107 2184
4 1643 1642 1623 1658
4 1642 1623 1658 1632
4 1467 1457 1446 1406
4 2055 2039 2084 2010
4 1293 1265 1195 1286
4 1359 1421 1428 1451
4 1373 1392 1325 1272
4 1392 1325 1272 1390
4 1741 1707 1716 1757
4 1226 1205 1189 1081
4 1417 1373 1325 1439
4 2215 2217 2235 2188
4 1732 1764 1749 1784
4 1764 1749 1784 1737
4 1962 1995 1953 1935
4 2217 2249 2235 2262
4 1265 1242 1195 1193
4 1534 1567 1564 1566
4 1511 1539 1507 1501
4 1161 1148 1244 1028
4 1603 1608 1586 1579
4 1534 1539 1535 1501
4 1703 1689 1684 1673
4 1501 1511 1456 1507
4 1942 1962 1983 1981
4 1643 1676 1678 1658
4 2153 2109 2130 2156
4 2153 2190 2202 2242
4 657 685 717 648
4 1233 1172 1079 1091
4 1078 1192 1246 1272
4 1424 1365 1398 1472
4 1643 1642 1658 1678
4 1642 1658 1678 1660
4 1909 1943 1880 1901
4 2026 1988 2012 2024
4 1390 1454 1439 1411
4 2055 2017 2070 2076
4 1742 1712 1732 1737
4 1088 1045 1207 1023
4 1079 1172 997 1091
4 997 1079 1091 898
4 1737 1730 1704 1715
4 1628 1603 1623 1642
4 1603 1623 1642 1632
4 1628 1603 1642 1607
4 1630 1635 1664 1660
4 2145 2118 2101 2188
4 1145 1100 1135 1001
4 1145 1100 1001 993
4 1637 1620 1601 1636
4 1819 1830 1853 1808
4 1606 1620 1582 1601
4 1518 1506 1482 1514
4 1415 1367 1365 1425
4 1365 1415 1425 1472
4 635 631 633 789
4 1537 1518 1558 1514
4 1712 1704 1732 1674
4 1689 1704 1715 1712
4 1689 1704 1712 1674
4 1286 1233 1147 1195
4 1688 1678 1697 1711
4 1678 1697 1711 1691
4 1688 1678 1711 1665
4 835 819 777 903
4 777 835 903 928
4 2240 2225 2216 2195
4 2216 2240 2195 2222
4 2018 2047 2042 2079
4 2018 2047 2079 2059
4 2209 2236 2186 2252
4 1209 1137 1159 1247
4 1159 1209 1247 1278
4 1059 1112 1104 1215
4 927 921 847 734
4 1237 1294 1305 1319
4 1305 1237 1319 1346
4 2072 2091 2103 2057
4 2103 2072 2057 2040
4 2125 2097 2087 2073
4 2087 2125 2073 2076
4 888 945 964 1033
4 1480 1504 1408 1463
4 2196 2211 2218 2168
4 2218 2196 2168 2184
4 1335 1399 1389 1316
4 1335 1399 1316 1359
4 1309 1248 1259 1327
4 1924 1887 1900 1879
4 1212 1123 1246 1078
4 1401 1398 1327 1456
4 1492 1497 1530 1559
4 1045 956 1029 1153
4 1029 1045 1153 1198
4 1164 1049 1085 1154
4 2242 2271 2281 2266
4 2193 2169 2161 2144
4 2161 2193 2144 2141
4 1988 1951 1959 1945
4 1959 1988 1945 1978
4 1006 942 1014 1182
4 666 654 642 769
4 1408 1439 1411 1390
4 2003 2028 2033 1998
4 2033 2003 1998 1981
4 1880 1899 1872 1904
4 2255 2214 2252 2209
4 1343 1318 1289 1207
4 685 715 725 825
4 725 685 825 787
4 1978 1948 1958 1945
4 1978 1948 1945 1959
4 1759 1762 1786 1761
4 1786 1759 1761 1780
4 1378 1430 1369 1386
4 1943 1964 1970 1939
4 1970 1943 1939 1926
4 766 808 823 896
4 823 766 896 862
4 780 761 769 934
4 1210 1244 1264 1364
4 2009 1981 2033 1998
4 2009 1981 1998 1983
4 2243 2222 2202 2242
4 2159 2107 2129 2128
4 2129 2159 2128 2166
4 2188 2138 2178 2118
4 820 787 725 825
4 1710 1716 1681 1693
4 2078 2099 2131 2150
4 1892 1921 1900 1879
4 1892 1921 1879 1884
4 2076 2110 2125 2073
4 2076 2110 2073 2070
4 1318 1336 1289 1326
4 1637 1606 1647 1615
4 1637 1606 1615 1601
4 1537 1549 1506 1529
4 1506 1537 1529 1514
4 1175 1198 1029 1153
4 1175 1198 1153 1258
4 1170 1169 1014 1182
4 1170 1169 1182 1292
4 1104 1066 1033 1238
4 1070 1026 981 1193
4 1842 1809 1819 1808
4 1842 1809 1808 1799
4 1863 1836 1852 1840
4 1863 1836 1840 1839
4 1780 1766 1753 1761
4 1753 1780 1761 1759
4 1278 1311 1209 1247
4 1278 1311 1247 1369
4 1147 1233 1079 1091
4 1079 1147 1091 903
4 1147 1233 1091 1195
4 2276 2287 2289 2280
4 1695 1700 1726 1699
4 1726 1695 1699 1691
4 917 862 823 896
4 2190 2164 2224 2223
4 1777 1751 1750 1716
4 1385 1403 1312 1432
4 1691 1658 1661 1660
4 734 737 635 789
4 734 737 789 879
4 1406 1467 1422 1446
4 1422 1406 1446 1369
4 1446 1422 1369 1327
4 1081 1109 1205 1189
4 1081 1109 1189 1085
4 1109 1189 1085 1033
4 1459 1396 1432 1385
4 1955 1926 1970 1939
4 1955 1926 1939 1906
4 1582 1606 1601 1615
4 1582 1606 1615 1614
4 928 1091 995 903
4 1446 1484 1456 1452
4 1408 1411 1463 1364
4 1751 1720 1750 1716
4 1751 1720 1716 1741
4 997 993 1130 1145
4 1070 1180 1026 1193
4 1091 1147 1195 995
4 2096 2077 2130 2054
4 1809 1766 1780 1761
4 1170 1178 1287 1173
4 1170 1178 1173 1011
4 1193 1116 1180 1026
4 985 1109 917 1033
4 1371 1304 1272 1315
4 2059 2107 2034 2047
4 1693 1666 1684 1667
4 1693 1666 1667 1681
4 1287 1304 1173 1212
4 1601 1637 1636 1615
4 1637 1636 1615 1647
4 1636 1601 1615 1588
4 2096 2084 2070 2141
4 2257 2243 2202 2242
4 2257 2243 2242 2258
4 869 997 928 898
4 928 869 898 777
4 737 875 742 769
4 985 1066 1033 964
4 1300 1345 1258 1301
4 2071 2040 2103 2057
4 2071 2040 2057 2007
4 780 742 769 666
4 1283 1317 1366 1244
4 1283 1317 1244 1161
4 1401 1354 1327 1309
4 2156 2133 2202 2135
4 1880 1899 1904 1943
4 1661 1658 1632 1660
4 1354 1311 1422 1327
4 2184 2107 2159 2128
4 1995 2007 1983 2040
4 1317 1364 1411 1244
4 1796 1820 1784 1789
4 1535 1501 1566 1534
4 1892 1863 1852 1840
4 1599 1586 1570 1587
4 1570 1599 1587 1596
4 1403 1385 1459 1432
4 2141 2170 2193 2144
4 2141 2170 2144 2096
4 1324 1314 1258 1175
4 941 971 847 759
4 1059 1128 1146 1183
4 1146 1059 1183 1215
4 1996 2007 2045 1986
4 2008 1978 1958 1971
4 2008 1978 1971 1988
4 950 1061 934 1055
4 1506 1482 1514 1529
4 1506 1482 1529 1512
4 1283 1366 1263 1244
4 1263 1283 1244 1114
4 1558 1537 1514 1529
4 1558 1537 1529 1549
4 1514 1558 1529 1513
4 2280 2290 2287 2289
4 2170 2199 2193 2144
4 1279 1189 1238 1268
4 1477 1510 1508 1470
4 1900 1864 1892 1879
4 1753 1721 1759 1761
4 1746 1723 1711 1729
4 1948 1921 1918 1910
4 1948 1921 1910 1924
4 1014 1011 1170 1182
4 2129 2100 2166 2128
4 1926 1872 1899 1904
4 1899 1926 1904 1943
4 2137 2160 2166 2114
4 2166 2137 2114 2100
4 2159 2184 2128 2196
4 1799 1804 1808 1842
4 1300 1292 1182 1169
4 1673 1675 1689 1645
4 1675 1689 1645 1674
4 1508 1463 1477 1470
4 997 1079 898 1001
4 997 1079 1001 1145
4 1079 1001 1145 1135
4 1411 1408 1390 1244
4 1251 1286 1147 1265
4 1463 1508 1504 1470
4 879 927 789 734
4 1278 1207 1289 1247
4 1900 1887 1864 1879
4 761 799 790 934
4 1054 946 1060 936
4 1054 946 936 1027
4 936 1054 1027 1060
4 1054 946 1027 921
4 1891 1884 1879 1910
4 1285 1215 1146 1183
4 2099 2047 2107 2079
4 2099 2047 2079 2042
4 2107 2099 2079 2168
4 635 633 734 789
4 1504 1470 1408 1463
4 741 734 847 921
4 1981 1937 1955 1957
4 1955 1981 1957 2003
4 1594 1579 1603 1557
4 1603 1594 1557 1607
4 1892 1863 1840 1864
4 1014 942 1011 1182
4 1819 1853 1842 1808
4 1534 1507 1501 1472
4 1318 1368 1326 1258
4 1318 1368 1258 1314
4 2240 2225 2195 2242
4 666 642 742 769
4 849 997 898 993
4 1594 1579 1557 1543
4 1557 1594 1543 1542
4 1259 1309 1327 1354
4 1081 1109 1085 917
4 1462 1367 1415 1425
4 717 641 648 708
4 717 641 708 734
4 2211 2218 2168 2238
4 2258 2225 2240 2242
4 2240 2258 2242 2243
4 1207 1120 1023 1179
4 1207 1120 1179 1159
4 1120 1179 1159 1023
4 1207 1120 1159 1278
4 1779 1799 1808 1809
4 1422 1406 1369 1311
4 1673 1675 1645 1633
4 1675 1645 1633 1616
4 1661 1691 1660 1695
4 1293 1334 1265 1286
4 1006 1014 1169 1182
4 1298 1287 1173 1182
4 2012 2056 2024 2048
4 2012 2056 2048 2076
4 1906 1908 1904 1939
4 888 964 985 1033
4 1924 1900 1921 1879
4 899 819 835 903
4 1987 1991 1971 2012
4 1399 1389 1316 1451
4 1596 1635 1630 1622
4 1630 1596 1622 1599
4 1366 1267 1263 1272
4 1880 1883 1901 1847
4 1880 1883 1847 1842
4 1294 1305 1319 1387
4 925 879 789 737
4 1721 1697 1691 1711
4 1298 1304 1235 1173
4 2130 2153 2156 2195
4 2249 2268 2235 2262
4 1311 1209 1247 1327
4 1891 1889 1898 1855
4 1456 1501 1507 1472
4 2266 2257 2224 2242
4 1865 1880 1872 1838
4 1482 1514 1529 1513
4 1814 1804 1824 1791
4 2017 2010 2070 1990
4 1632 1623 1599 1603
4 1720 1693 1715 1716
4 1601 1582 1615 1588
4 950 925 906 769
4 2110 2125 2073 2144
4 1362 1390 1392 1272
4 1802 1777 1782 1774
4 1802 1777 1774 1797
4 1935 1942 1983 1928
4 2271 2242 2257 2266
4 1497 1492 1531 1559
4 2206 2131 2184 2150
4 1820 1828 1822 1789
4 1364 1403 1463 1372
4 1364 1403 1372 1264
4 1716 1710 1720 1693
4 835 899 903 995
4 1970 1955 1939 1957
4 1955 1939 1957 1908
4 1939 1970 1957 1964
4 995 1195 1070 1086
4 1070 995 1086 899
4 1586 1603 1579 1557
4 1586 1603 1557 1587
4 1586 1603 1587 1599
4 2012 2008 1991 1971
4 2012 2008 1971 1988
4 1304 1353 1235 1315
4 1664 1700 1695 1660
4 1695 1700 1699 1660
4 1038 950 906 1055
4 862 820 766 896
4 1632 1661 1660 1664
4 1809 1780 1786 1761
4 2110 2141 2161 2144
4 1169 1175 1006 1153
4 1948 1945 1959 1910
4 1948 1945 1910 1958
4 1945 1959 1910 1951
4 2285 2266 2276 2284
4 1029 1175 1153 1006
4 1179 1207 1159 1247
4 1159 1179 1247 1137
4 1179 1247 1137 1196
4 1159 1179 1137 1023
4 1179 1247 1196 1295
4 1198 1219 1045 1153
4 1755 1746 1768 1729
4 2247 2217 2206 2253
4 2103 2071 2057 2114
4 985 917 888 1033
4 2033 2009 1998 2057
4 1311 1354 1259 1327
4 823 917 896 1033
4 737 742 642 769
4 777 720 731 898
4 2218 2168 2238 2206
4 1244 1210 1317 1364
4 1305 1319 1387 1412
4 1079 898 1001 903
4 2040 2009 2072 2057
4 1415 1462 1425 1503
4 1689 1684 1673 1645
4 1689 1684 1645 1667
4 1689 1684 1667 1693
4 1484 1511 1474 1456
4 1484 1511 1456 1452
4 1721 1691 1726 1699
4 1721 1691 1699 1711
4 2099 2131 2150 2184
4 2145 2178 2118 2188
4 2236 2209 2255 2252
4 2222 2243 2240 2242
4 1970 2003 1955 1957
4 1846 1814 1824 1860
4 1802 1836 1797 1774
4 925 1038 906 1018
4 1430 1457 1406 1369
4 1430 1457 1369 1386
4 1889 1919 1898 1923
4 823 888 917 1033
4 1779 1755 1768 1791
4 1980 2017 1997 1990
4 731 799 898 720
4 725 766 820 896
4 1463 1483 1477 1432
4 2209 2186 2214 2252
4 642 635 737 789
4 1392 1371 1330 1272
4 1392 1371 1272 1315
4 1470 1504 1510 1508
4 641 648 708 633
4 708 641 633 734
4 633 708 734 789
4 633 708 789 631
4 633 708 631 648
4 1259 1209 1311 1327
4 1353 1298 1235 1301
4 1828 1856 1822 1855
4 2077 2109 2122 2130
4 2077 2109 2130 2054
4 2224 2190 2223 2242
4 2199 2222 2216 2195
4 2199 2222 2195 2156
4 2276 2274 2280 2252
4 1764 1796 1810 1784
4 1764 1796 1784 1789
4 1400 1378 1295 1386
4 2161 2125 2110 2144
4 1786 1819 1809 1808
4 1357 1432 1396 1312
4 2056 2024 2048 2087
4 2048 2056 2087 2076
4 2087 2048 2076 2073
4 2087 2048 2073 2097
4 2048 2076 2073 2017
4 2048 2073 2097 2029
4 2087 2048 2097 2024
4 2048 2073 2029 1997
4 2033 2072 2009 2057
4 1472 1503 1415 1425
4 1226 1164 1081 1085
4 1226 1164 1085 1154
4 1192 1114 1263 1028
4 1642 1658 1660 1632
4 1751 1777 1769 1716
4 1797 1757 1769 1774
4 1883 1901 1847 1853
4 1847 1883 1853 1842
4 1853 1847 1842 1808
4 1853 1847 1808 1830
4 1853 1847 1830 1901
4 1959 1924 1948 1910
4 1614 1646 1647 1633
4 1512 1549 1545 1543
4 1942 1907 1931 1928
4 2100 2071 2137 2114
4 1617 1591 1633 1614
4 1483 1463 1403 1432
4 1645 1673 1633 1647
4 1490 1515 1543 1512
4 2204 2252 2214 2186
4 1316 1399 1451 1359
4 761 666 769 654
4 2125 2097 2073 2144
4 2101 2118 2138 2188
4 1011 953 1051 1173
4 1804 1779 1808 1791
4 1991 2020 2041 2012
4 1242 1070 1195 1193
4 1658 1678 1660 1691
4 1856 1891 1879 1855
4 2010 2044 2084 2070
4 1864 1839 1863 1840
4 1503 1531 1462 1492
4 1503 1531 1492 1534
4 1462 1503 1492 1425
4 1325 1272 1390 1263
4 1390 1325 1263 1244
4 2018 1996 2022 2045
4 2018 1996 2045 1986
4 1398 1309 1327 1248
4 1286 1251 1334 1265
4 2103 2137 2071 2114
4 1864 1832 1839 1840
4 1298 1300 1182 1301
4 1346 1285 1237 1319
4 1346 1285 1319 1359
4 1749 1784 1737 1715
4 1635 1630 1622 1660
4 1312 1396 1385 1432
4 1335 1279 1221 1238
4 1335 1279 1238 1268
4 1209 1137 1247 1327
4 1061 1100 954 934
4 1061 1100 934 1055
4 927 925 789 1018
4 2289 2290 2284 2280
4 2290 2280 2288 2284
4 1963 1935 1995 1983
4 1011 1051 1178 1173
4 1723 1688 1728 1711
4 1723 1688 1711 1729
4 1510 1477 1488 1470
4 1954 1987 1971 1923
4 1325 1272 1263 1228
4 1678 1642 1660 1665
4 1219 1207 1045 1153
4 1114 1028 1161 1244
4 1161 1114 1244 1283
4 964 1104 1033 945
4 2072 2091 2057 2028
4 2253 2268 2262 2235
4 2206 2184 2218 2168
4 1797 1769 1777 1774
4 1759 1762 1761 1726
4 1761 1759 1726 1721
4 1026 1116 981 1193
4 2110 2076 2055 2070
4 2009 1962 1981 1983
4 1559 1583 1530 1555
4 1559 1583 1555 1593
4 2091 2103 2057 2114
4 898 1001 903 845
4 1591 1566 1556 1553
4 1591 1566 1553 1593
4 2078 2101 2085 2150
4 1647 1684 1666 1667
4 1549 1570 1586 1587
4 1579 1557 1543 1549
4 1632 1599 1630 1622
4 1632 1599 1622 1603
4 2216 2193 2199 2144
4 2216 2193 2144 2169
4 1247 1159 1278 1207
4 2028 2033 1998 2057
4 928 995 835 903
4 898 997 1001 993
4 1345 1368 1314 1258
4 1345 1368 1258 1326
4 1451 1490 1471 1441
4 1451 1490 1441 1478
4 808 823 896 1033
4 1908 1874 1904 1860
4 1769 1757 1741 1716
4 1741 1769 1716 1751
4 1559 1531 1564 1492
4 1412 1421 1346 1319
4 1464 1412 1387 1437
4 1464 1412 1437 1478
4 1412 1346 1305 1319
4 2186 2164 2158 2223
4 1907 1908 1931 1860
4 1362 1330 1246 1272
4 1362 1330 1272 1392
4 1645 1633 1616 1589
4 1839 1797 1836 1840
4 777 731 869 898
4 1802 1836 1774 1810
4 903 898 845 720
4 993 822 954 934
4 954 993 934 1100
4 2044 2010 1990 2070
4 1762 1786 1761 1830
4 1988 1945 1978 1971
4 2166 2196 2159 2128
4 2166 2196 2128 2160
4 799 690 790 720
4 1664 1695 1661 1660
4 690 761 790 654
4 1336 1400 1295 1326
4 1146 1237 1285 1183
4 1366 1362 1267 1272
4 1987 1980 1997 1923
4 1935 1963 1928 1983
4 1943 1939 1926 1904
4 1939 1926 1904 1906
4 1943 1939 1904 1964
4 956 1029 1153 1006
4 2169 2161 2144 2097
4 1630 1664 1632 1660
4 946 936 1027 847
4 946 936 847 884
4 2044 2096 2070 2054
4 1879 1891 1910 1898
4 1910 1879 1898 1896
4 2240 2195 2222 2242
4 2003 1998 1981 1957
4 1998 1981 1957 1983
4 2003 1998 1957 1964
4 1957 1998 1983 1931
4 2007 1963 1983 1986
4 1579 1557 1549 1586
4 1557 1549 1586 1587
4 1474 1507 1444 1456
4 1474 1507 1456 1511
4 1146 1237 1183 1128
4 642 631 635 789
4 2161 2097 2125 2144
4 2170 2199 2144 2130
4 1221 1158 1291 1238
4 1291 1221 1238 1335
4 1422 1446 1401 1327
4 981 937 899 1086
4 899 981 1086 1070
4 2129 2100 2128 2059
4 1516 1501 1456 1453
4 2284 2278 2281 2260
4 2281 2284 2260 2266
4 2101 2078 2145 2150
4 1444 1401 1474 1456
4 1645 1673 1647 1684
4 1647 1645 1684 1667
4 1847 1842 1808 1804
4 708 734 789 847
4 1158 1221 1066 1238
4 1291 1359 1335 1316
4 1291 1359 1316 1215
4 2109 2130 2156 2122
4 2130 2156 2122 2199
4 1633 1645 1647 1589
4 1189 1109 1066 1033
4 2138 2188 2136 2101
4 823 808 888 1033
4 766 808 896 715
4 1246 1267 1362 1272
4 1264 1229 1312 1372
4 1312 1264 1372 1403
4 1988 1951 1945 2024
4 822 993 849 934
4 1786 1830 1819 1808
4 2116 2153 2130 2154
4 1116 1193 1113 981
4 1910 1879 1896 1924
4 1695 1699 1691 1660
4 1045 956 1153 1023
4 2022 2059 2018 2045
4 2022 2059 2045 2100
4 1212 1246 1330 1272
4 2003 2028 1998 1964
4 780 954 822 934
4 2238 2246 2253 2205
4 2253 2238 2205 2206
4 1753 1721 1761 1711
4 875 950 780 769
4 2033 2028 2072 2057
4 2164 2186 2236 2223
4 2153 2116 2190 2185
4 1259 1137 1209 1327
4 1169 1175 1153 1258
4 1889 1898 1855 1923
4 1945 1978 1971 1958
4 2196 2211 2168 2160
4 1824 1814 1791 1860
4 1737 1704 1712 1715
4 1238 1291 1335 1316
4 1335 1238 1316 1389
4 1238 1291 1316 1215
4 2059 2018 2045 2079
4 2018 2045 2079 2042
4 2045 2059 2079 2128
4 2079 2045 2128 2089
4 2202 2224 2257 2242
4 993 934 1100 1001
4 934 1100 1001 1135
4 993 934 1001 898
4 934 1001 898 845
4 1907 1931 1928 1860
4 1750 1782 1777 1774
4 1872 1906 1904 1926
4 1325 1373 1272 1228
4 1195 1070 1086 1193
4 1970 1964 2003 1957
4 1367 1365 1425 1248
4 1287 1292 1170 1182
4 1959 1951 1924 1910
4 2225 2216 2195 2169
4 1630 1632 1622 1660
4 1715 1750 1720 1716
4 819 777 903 720
4 2103 2091 2137 2114
4 1749 1732 1784 1738
4 1557 1543 1549 1512
4 1549 1557 1512 1529
4 1549 1557 1529 1587
4 1237 1294 1319 1128
4 1852 1884 1892 1879
4 1295 1400 1386 1326
4 1997 1980 1990 1923
4 1403 1463 1372 1432
4 1991 1958 1971 2008
4 1732 1712 1674 1738
4 725 715 766 896
4 2160 2166 2114 2128
4 2166 2114 2128 2100
4 1501 1456 1453 1425
4 2153 2130 2154 2195
4 2078 2099 2150 2042
4 2190 2164 2223 2185
4 1530 1559 1555 1492
4 1918 1948 1910 1919
4 1910 1918 1919 1898
4 1412 1387 1437 1319
4 1614 1647 1606 1615
4 1408 1411 1364 1244
4 1198 1219 1153 1318
4 2116 2153 2154 2185
4 2153 2154 2185 2242
4 927 1027 1018 789
4 1285 1215 1183 1316
4 1512 1506 1549 1529
4 1091 1147 995 903
4 1516 1501 1453 1553
4 1543 1557 1542 1499
4 847 946 921 1027
4 787 759 847 971
4 997 1001 993 1145
4 1411 1366 1317 1244
4 1921 1918 1910 1891
4 1918 1910 1891 1898
4 2190 2153 2185 2242
4 981 1086 1070 1193
4 2153 2135 2156 2202
4 2156 2153 2202 2222
4 1472 1503 1425 1501
4 1784 1749 1738 1716
4 1091 928 997 898
4 1372 1312 1403 1432
4 2216 2199 2195 2144
4 1891 1884 1910 1921
4 936 1027 847 789
4 1737 1764 1782 1784
4 1285 1237 1319 1183
4 2040 2009 2057 1983
4 1478 1512 1490 1499
4 1478 1512 1499 1464
4 1059 1128 1183 945
4 1962 1995 1935 1983
4 1962 1995 1983 2009
4 896 862 996 1085
4 996 896 1085 992
4 1085 996 992 1049
4 1085 996 1049 862
4 1749 1737 1732 1712
4 1732 1749 1712 1738
4 1749 1737 1712 1715
4 1921 1910 1924 1879
4 1921 1910 1879 1884
4 1726 1721 1699 1761
4 1408 1439 1390 1325
4 1715 1689 1712 1716
4 2084 2055 2010 2070
4 2084 2055 2070 2110
4 2079 2045 2089 2042
4 2110 2141 2144 2070
4 1700 1726 1699 1762
4 2048 2012 2076 2020
4 1212 1173 1051 1078
4 1614 1593 1591 1589
4 1614 1593 1589 1583
4 2137 2160 2114 2091
4 1910 1945 1951 1896
4 1910 1945 1896 1913
4 1910 1945 1913 1919
4 708 717 734 847
4 708 717 847 648
4 1847 1880 1842 1838
4 1353 1235 1315 1301
4 1472 1444 1507 1456
4 2253 2262 2217 2235
4 1365 1398 1472 1425
4 1365 1398 1425 1248
4 1398 1472 1425 1456
4 1027 936 1060 1018
4 1027 936 1018 789
4 1104 1059 1215 1183
4 1104 1059 1183 945
4 1215 1104 1183 1238
4 1846 1872 1904 1880
4 1189 1081 1085 1226
4 1085 1189 1226 1268
4 1769 1777 1774 1716
4 1828 1822 1789 1855
4 1957 1939 1964 1933
4 1957 1939 1933 1908
4 1838 1846 1824 1880
4 1919 1954 1971 1923
4 1908 1906 1955 1939
4 1874 1846 1904 1860
4 1215 1291 1158 1238
4 1406 1446 1369 1457
4 1446 1369 1457 1452
4 2289 2284 2276 2280
4 1804 1838 1824 1847
4 1179 1207 1247 1295
4 1937 1955 1957 1908
4 1957 1937 1908 1931
4 1599 1587 1596 1622
4 1599 1587 1622 1603
4 1587 1596 1622 1580
4 1852 1856 1879 1822
4 2206 2184 2168 2150
4 1614 1647 1615 1589
4 1981 1937 1957 1942
4 1937 1957 1942 1931
4 1958 1919 1971 1945
4 1667 1693 1681 1716
4 1768 1755 1729 1791
4 1421 1478 1451 1441
4 1421 1478 1441 1437
4 1988 1945 1971 2024
4 906 1038 1055 1018
4 1836 1852 1840 1820
4 1852 1840 1820 1822
4 1699 1691 1660 1678
4 1896 1910 1913 1898
4 1910 1913 1898 1919
4 1913 1898 1919 1923
4 1913 1896 1898 1903
4 1898 1913 1903 1923
4 1543 1557 1499 1512
4 1764 1782 1784 1810
4 1782 1784 1810 1774
4 1782 1784 1774 1750
4 2276 2274 2252 2236
4 1366 1263 1244 1390
4 1366 1263 1390 1272
4 2107 2129 2128 2059
4 2100 2071 2114 2045
4 1593 1564 1566 1553
4 1593 1564 1553 1555
4 1697 1688 1711 1728
4 1711 1697 1728 1721
4 2017 2020 1997 2048
4 1079 898 903 1091
4 1289 1336 1295 1326
4 2215 2217 2188 2145
4 1583 1582 1530 1555
4 1583 1582 1555 1589
4 1325 1263 1244 1228
4 1593 1591 1589 1553
4 1591 1589 1553 1556
4 1589 1593 1553 1555
4 1553 1589 1555 1544
4 1553 1589 1544 1556
4 1555 1553 1544 1492
4 1632 1622 1660 1642
4 1908 1904 1939 1933
4 1904 1939 1933 1964
4 1482 1464 1387 1437
4 1482 1464 1437 1499
4 1633 1616 1589 1591
4 1589 1633 1591 1614
4 888 945 1033 808
4 2020 2017 2076 2048
4 1147 1286 1195 1265
4 1636 1666 1681 1667
4 1636 1666 1667 1647
4 1681 1636 1667 1648
4 1304 1235 1173 1272
4 1957 1998 1931 1933
4 1838 1804 1842 1847
4 1766 1779 1768 1809
4 1689 1715 1693 1716
4 1570 1558 1596 1587
4 1570 1558 1587 1549
4 1558 1596 1587 1580
4 2020 1987 1997 2048
4 654 642 769 631
4 2236 2224 2164 2223
4 2236 2224 2223 2266
4 1501 1456 1425 1472
4 1387 1482 1437 1414
4 2131 2206 2145 2150
4 2145 2131 2150 2078
4 1490 1478 1499 1441
4 1499 1490 1441 1471
4 1478 1499 1441 1437
4 1499 1441 1437 1458
4 1499 1441 1458 1471
4 1441 1437 1458 1319
4 1373 1392 1272 1315
4 1636 1615 1647 1667
4 1636 1615 1667 1624
4 1636 1615 1624 1588
4 1667 1636 1624 1648
4 1469 1492 1530 1526
4 2109 2116 2130 2054
4 1529 1558 1549 1587
4 1529 1558 1587 1550
4 1529 1558 1550 1513
4 1558 1587 1550 1580
4 2263 2242 2281 2260
4 1732 1764 1784 1789
4 936 847 884 708
4 1248 1259 1327 1137
4 1910 1945 1919 1958
4 1919 1910 1958 1948
4 1582 1530 1555 1526
4 2223 2190 2185 2242
4 1511 1516 1456 1452
4 1782 1802 1774 1810
4 1746 1766 1768 1761
4 2114 2128 2100 2045
4 2114 2128 2045 2089
4 2114 2128 2089 2160
4 1470 1408 1463 1372
4 1564 1593 1559 1555
4 1558 1568 1580 1513
4 1189 1085 1033 1268
4 1931 1957 1933 1908
4 1421 1478 1437 1412
4 1244 1263 1114 1028
4 1652 1636 1648 1588
4 1104 1183 1238 1033
4 690 790 720 654
4 1582 1561 1526 1588
4 1289 1278 1247 1378
4 2128 2079 2089 2168
4 2128 2079 2168 2107
4 2128 2079 2107 2059
4 2079 2107 2059 2047
4 2168 2128 2107 2184
4 2168 2128 2184 2196
4 2168 2128 2196 2160
4 1443 1482 1414 1513
4 1542 1543 1499 1490
4 1543 1499 1490 1512
4 1359 1421 1451 1316
4 1716 1707 1681 1648
4 2024 2012 2048 1971
4 1339 1414 1294 1458
4 1304 1173 1212 1272
4 1957 1942 1931 1983
4 1942 1931 1983 1928
4 2228 2246 2211 2179
4 1840 1820 1822 1784
4 896 1085 992 1033
4 1784 1810 1774 1836
4 1564 1534 1566 1553
4 1635 1580 1619 1612
4 1244 1148 1264 1229
4 1023 1207 1179 1203
4 1207 1179 1203 1295
4 946 1060 936 884
4 819 937 863 989
4 1501 1516 1566 1553
4 1901 1880 1847 1904
4 1369 1446 1327 1452
4 925 875 737 769
4 1645 1689 1667 1674
4 2217 2235 2188 2205
4 1085 1109 1033 917
4 2100 2022 2071 2045
4 896 1085 1033 917
4 1471 1451 1441 1389
4 2045 2114 2089 2057
4 1566 1556 1553 1516
4 2164 2190 2116 2185
4 1564 1553 1555 1492
4 2099 2107 2184 2168
4 1408 1463 1372 1364
4 1246 1212 1078 1272
4 995 1086 899 903
4 992 1085 1154 1111
4 1195 1265 1193 1086
4 1265 1193 1086 1240
4 2260 2281 2266 2242
4 1175 1169 1314 1258
4 2238 2205 2206 2168
4 1372 1364 1264 1244
4 1766 1746 1753 1761
4 1603 1557 1587 1607
4 903 777 928 898
4 903 777 898 720
4 928 903 898 1091
4 2199 2170 2122 2130
4 1753 1728 1721 1711
4 1422 1369 1327 1311
4 1441 1421 1437 1319
4 966 994 1049 943
4 1049 966 943 963
4 943 1049 963 996
4 966 994 943 820
4 994 1049 943 862
4 943 1049 996 862
4 966 943 963 884
4 1049 963 996 992
4 963 996 992 896
4 966 971 994 820
4 963 943 996 896
4 917 862 896 1085
4 820 787 825 971
4 963 943 896 825
4 992 963 896 825
4 963 943 825 884
4 1049 1081 1085 862
4 1049 963 992 999
4 963 992 999 884
4 1049 966 963 999
4 943 996 896 862
4 992 1049 999 1119
4 999 963 884 966
4 1119 1049 1154 992
4 759 787 847 685
4 999 992 1119 1154
4 999 992 1154 1022
4 999 992 1022 909
4 994 943 820 862
4 943 820 862 896
4 725 820 825 896
4 999 992 909 884
4 1119 966 999 884
4 715 725 825 896
4 787 685 825 847
4 992 963 825 884
4 685 715 825 648
4 1119 999 1154 884
4 992 1085 1049 1154
4 1022 999 909 884
4 943 966 820 825
4 820 943 825 896
4 943 966 825 884
4 992 1022 909 965
4 1022 909 965 979
4 1022 909 979 1106
4 1022 909 1106 884
4 966 946 847 884
4 966 946 884 1060
4 1154 999 1022 884
4 971 966 847 825
4 1820 1822 1784 1789
4 1425 1398 1456 1327
4 2017 1997 1990 2070
4 2017 1997 2070 2073
4 1665 1650 1607 1639
4 1235 1298 1173 1182
4 1238 1316 1389 1271
4 1238 1316 1271 1183
4 1238 1316 1183 1215
4 1287 1170 1173 1182
4 1170 1173 1182 1011
4 2154 2116 2185 2147
4 2185 2154 2147 2201
4 2185 2154 2201 2242
4 1378 1295 1386 1369
4 1378 1295 1369 1247
4 1198 1175 1324 1258
4 1804 1824 1791 1808
4 1804 1824 1808 1847
4 1135 1163 1223 1042
4 1304 1235 1272 1315
4 2063 2042 2085 2124
4 1001 934 1135 845
4 979 1022 1106 1204
4 1898 1891 1855 1879
4 1587 1622 1603 1612
4 1587 1622 1612 1580
4 1311 1278 1406 1369
4 917 1081 862 1085
4 1420 1389 1471 1382
4 1647 1645 1667 1615
4 1647 1645 1615 1589
4 2170 2141 2084 2096
4 2079 2099 2042 2124
4 2228 2246 2179 2254
4 1451 1421 1441 1316
4 2211 2228 2179 2162
4 2071 1995 2040 2007
4 1432 1423 1477 1372
4 708 789 631 774
4 708 789 774 936
4 1207 1219 1343 1318
4 2238 2246 2205 2211
4 992 1154 1022 1111
4 937 863 989 990
4 1580 1619 1612 1571
4 1624 1636 1588 1648
4 1588 1624 1648 1575
4 1588 1624 1575 1572
4 1588 1624 1572 1615
4 1325 1373 1228 1332
4 1325 1373 1332 1439
4 2246 2253 2205 2267
4 1503 1472 1534 1501
4 2073 2097 2029 2144
4 1619 1635 1612 1668
4 2284 2278 2260 2288
4 1285 1359 1215 1316
4 1169 1006 1182 1153
4 1847 1808 1830 1834
4 1847 1808 1834 1824
4 2278 2281 2260 2263
4 1333 1265 1334 1251
4 1079 1001 1135 1042
4 863 819 989 846
4 1247 1137 1196 1327
4 1559 1564 1555 1492
4 2141 2110 2084 2070
4 2063 2042 2124 2089
4 2268 2253 2267 2235
4 2252 2261 2280 2260
4 2012 2048 1971 1987
4 1596 1635 1622 1580
4 1027 927 847 789
4 1665 1650 1639 1690
4 1575 1588 1572 1526
4 1839 1832 1797 1840
4 2040 1995 2009 1983
4 1614 1647 1589 1633
4 1749 1712 1738 1716
4 1051 953 1078 1173
4 1420 1389 1382 1271
4 1437 1421 1412 1319
4 1179 1023 1203 1196
4 1622 1660 1642 1639
4 1998 2009 1983 2057
4 1945 1896 1913 1903
4 966 971 820 825
4 1135 1163 1042 991
4 898 849 993 934
4 1534 1564 1531 1492
4 1557 1529 1587 1550
4 1840 1820 1784 1836
4 1316 1389 1271 1382
4 1271 1316 1382 1319
4 2276 2266 2236 2260
4 1645 1667 1615 1624
4 898 799 934 845
4 898 799 845 720
4 1219 1343 1318 1198
4 1558 1550 1513 1580
4 1550 1513 1580 1519
4 1550 1513 1519 1496
4 1550 1513 1496 1529
4 1589 1555 1544 1582
4 2217 2145 2206 2205
4 2110 2073 2070 2144
4 1359 1346 1421 1319
4 992 1085 1111 1033
4 1192 1263 1272 1228
4 1195 1265 1086 1147
4 1086 1195 1147 995
4 2211 2228 2162 2194
4 2228 2162 2194 2175
4 2162 2194 2175 2119
4 2162 2194 2119 2112
4 1622 1635 1660 1639
4 1957 1942 1983 1981
4 2089 2128 2168 2160
4 1492 1462 1425 1367
4 863 819 846 779
4 846 863 779 960
4 779 846 960 873
4 779 846 873 681
4 1667 1689 1693 1716
4 1660 1699 1678 1680
4 1660 1699 1680 1668
4 2206 2217 2205 2253
4 1619 1635 1668 1671
4 1668 1619 1671 1634
4 1671 1668 1634 1692
4 1671 1668 1692 1747
4 2070 2017 2073 2076
4 1437 1499 1458 1482
4 1931 1983 1928 1966
4 1928 1931 1966 1894
4 1712 1689 1674 1667
4 2235 2213 2188 2205
4 2276 2266 2260 2284
4 1997 1990 2070 2029
4 2085 2063 2124 2104
4 1235 1298 1182 1301
4 799 790 934 845
4 799 790 845 720
4 790 845 720 681
4 790 934 845 991
4 1856 1879 1822 1855
4 1864 1887 1832 1840
4 1295 1386 1369 1196
4 1316 1389 1382 1441
4 1471 1420 1382 1493
4 1135 1163 991 1101
4 2185 2223 2242 2260
4 2185 2223 2260 2219
4 2223 2260 2219 2252
4 2185 2223 2219 2158
4 2223 2242 2260 2266
4 1219 1207 1153 1318
4 1137 1179 1196 1023
4 1011 942 953 1173
4 1001 1135 1042 845
4 1650 1607 1639 1598
4 1173 1235 1182 1047
4 1022 1106 1204 1154
4 1852 1892 1840 1879
4 1892 1840 1879 1864
4 906 950 769 934
4 906 950 934 1055
4 2097 2048 2029 2024
4 1513 1519 1496 1414
4 2042 2079 2124 2089
4 1665 1650 1690 1702
4 1378 1289 1295 1247
4 1104 1183 1033 945
4 1163 1223 1042 1260
4 1746 1768 1729 1711
4 1746 1768 1711 1761
4 1359 1421 1316 1319
4 1251 1147 1223 1225
4 1251 1147 1225 1265
4 2223 2219 2158 2204
4 1225 1251 1265 1333
4 1265 1225 1333 1240
4 1265 1225 1240 1086
4 1265 1225 1086 1147
4 1945 1913 1919 1971
4 1945 1913 1971 1903
4 1983 1998 2057 1966
4 1060 936 884 913
4 1060 936 913 1018
4 1192 1078 1028 1053
4 1078 1028 1053 953
4 1700 1699 1660 1668
4 1263 1244 1228 1028
4 1408 1470 1416 1372
4 1439 1408 1416 1332
4 1439 1408 1332 1325
4 1416 1439 1332 1373
4 2145 2101 2150 2188
4 1589 1593 1555 1583
4 2186 2236 2223 2252
4 1645 1615 1589 1609
4 1645 1615 1609 1624
4 1615 1609 1624 1572
4 1609 1624 1572 1595
4 1572 1609 1595 1569
4 1572 1609 1569 1589
4 1247 1311 1327 1369
4 1327 1247 1369 1196
4 1198 1153 1258 1318
4 1777 1750 1774 1716
4 1225 1333 1240 1217
4 1225 1333 1217 1223
4 1240 1225 1217 989
4 631 708 774 648
4 2260 2223 2266 2236
4 1182 1173 1047 942
4 1945 1951 1896 1903
4 1609 1624 1595 1654
4 1840 1852 1879 1822
4 1879 1840 1822 1845
4 1840 1822 1845 1787
4 1173 1235 1047 1160
4 1173 1235 1160 1272
4 1160 1173 1272 1212
4 1225 1086 1147 989
4 2079 2124 2089 2168
4 1228 1325 1332 1244
4 1477 1432 1372 1463
4 1830 1847 1834 1901
4 1628 1642 1665 1607
4 790 761 934 769
4 790 761 769 654
4 769 790 654 788
4 992 1022 965 1111
4 965 992 1111 1033
4 1022 965 1111 1204
4 1425 1398 1327 1248
4 2048 2073 1997 2017
4 1478 1499 1437 1464
4 1199 1079 1135 1223
4 1971 2012 1988 2024
4 1457 1369 1386 1452
4 925 906 769 789
4 906 769 789 788
4 925 906 789 1018
4 1678 1660 1680 1665
4 2073 2070 2144 2029
4 2073 2070 2029 1997
4 1879 1840 1845 1887
4 1555 1530 1492 1526
4 1582 1583 1614 1589
4 1085 1226 1154 1268
4 2185 2223 2158 2164
4 2089 2114 2160 2091
4 1235 1160 1272 1315
4 1319 1294 1387 1414
4 1464 1482 1512 1499
4 1557 1499 1512 1529
4 1557 1499 1529 1554
4 1529 1557 1554 1550
4 1554 1529 1550 1496
4 1550 1554 1496 1547
4 1554 1496 1547 1517
4 1554 1496 1517 1499
4 1550 1554 1547 1612
4 1808 1834 1824 1781
4 2280 2276 2252 2260
4 899 819 903 989
4 819 903 989 846
4 1390 1408 1325 1244
4 1840 1822 1787 1784
4 966 825 884 847
4 2168 2211 2238 2205
4 1217 1225 1223 989
4 1609 1624 1654 1645
4 1600 1585 1641 1595
4 2228 2179 2162 2175
4 1615 1614 1589 1582
4 981 1086 1193 937
4 1456 1453 1425 1350
4 1425 1456 1350 1327
4 1307 1184 1266 1381
4 1345 1258 1301 1326
4 1203 1179 1196 1295
4 1196 1203 1295 1197
4 1203 1295 1197 1326
4 1295 1196 1197 1386
4 965 1022 979 1204
4 1575 1610 1560 1595
4 1834 1824 1781 1817
4 1834 1824 1817 1875
4 1834 1824 1875 1847
4 1466 1436 1393 1381
4 1591 1589 1556 1616
4 1635 1580 1612 1622
4 1612 1635 1622 1639
4 1622 1612 1639 1603
4 1225 1251 1333 1223
4 2177 2192 2148 2250
4 966 1119 1060 884
4 1372 1312 1432 1229
4 789 925 737 769
4 737 789 769 642
4 819 937 989 899
4 2130 2154 2195 2126
4 2195 2130 2126 2144
4 1560 1522 1575 1595
4 1499 1490 1471 1542
4 1501 1566 1534 1553
4 2283 2275 2286 2250
4 1271 1238 1183 1084
4 1238 1183 1084 1033
4 1084 1238 1033 1268
4 1387 1437 1319 1414
4 1612 1619 1668 1634
4 1585 1600 1548 1569
4 1600 1548 1569 1556
4 1585 1600 1569 1595
4 989 863 846 960
4 1808 1779 1809 1768
4 1808 1779 1768 1791
4 1316 1271 1183 1319
4 1998 1983 1931 1966
4 906 769 788 790
4 1335 1238 1389 1268
4 2045 2018 1986 2042
4 2042 2085 2124 2150
4 790 654 788 681
4 1100 934 1055 1135
4 1675 1645 1616 1674
4 1163 1042 991 1017
4 2099 2079 2168 2124
4 1711 1688 1665 1729
4 1001 1079 903 1042
4 1957 1998 1933 1964
4 1822 1784 1789 1787
4 1223 1135 1042 1079
4 2144 2216 2169 2195
4 789 708 847 936
4 2078 2085 2042 2150
4 1762 1761 1726 1699
4 1757 1769 1774 1716
4 1389 1471 1382 1441
4 1471 1382 1441 1458
4 1382 1441 1458 1319
4 1022 1106 1154 1060
4 1650 1639 1690 1653
4 1023 1207 1203 1153
4 1326 1318 1258 1203
4 1369 1378 1247 1278
4 2246 2211 2179 2205
4 2179 2246 2205 2213
4 2126 2195 2144 2169
4 2144 2126 2169 2094
4 2144 2126 2094 2054
4 2169 2144 2094 2097
4 1786 1809 1761 1808
4 1615 1609 1572 1589
4 1607 1665 1639 1642
4 846 960 873 1017
4 960 873 1017 1004
4 1017 960 1004 1143
4 1017 960 1143 989
4 846 960 1017 989
4 873 1017 1004 1101
4 1004 1017 1143 1181
4 1768 1729 1711 1690
4 2158 2164 2116 2185
4 1650 1690 1702 1653
4 909 965 979 748
4 2127 2173 2180 2098
4 2173 2180 2098 2182
4 2173 2180 2182 2232
4 2180 2182 2232 2220
4 2130 2126 2144 2054
4 654 769 788 631
4 1668 1634 1692 1653
4 1634 1692 1653 1663
4 1653 1634 1663 1605
4 1653 1634 1605 1612
4 1668 1634 1653 1612
4 1692 1653 1663 1702
4 1663 1653 1605 1655
4 1692 1668 1653 1690
4 1904 1880 1943 1901
4 1389 1316 1451 1441
4 1372 1477 1463 1470
4 1372 1408 1364 1244
4 1879 1898 1896 1845
4 1896 1879 1845 1887
4 1845 1896 1887 1850
4 1896 1879 1887 1924
4 1887 1896 1924 1951
4 1163 991 1101 1017
4 1564 1534 1553 1492
4 2147 2185 2201 2219
4 1237 1319 1183 1128
4 1787 1840 1784 1774
4 1784 1787 1774 1738
4 1774 1784 1738 1716
4 1784 1787 1738 1789
4 1840 1784 1774 1836
4 1787 1774 1738 1757
4 1153 1258 1318 1203
4 1499 1512 1529 1482
4 1183 1084 1033 945
4 1084 1033 945 926
4 1084 1033 926 965
4 945 1084 926 1062
4 1033 945 926 808
4 945 1084 1062 1128
4 873 846 1017 991
4 2154 2147 2201 2115
4 789 769 642 631
4 1582 1615 1588 1572
4 2260 2276 2284 2280
4 1332 1416 1373 1296
4 1332 1416 1296 1321
4 1332 1416 1321 1372
4 1699 1721 1711 1761
4 1987 2020 2012 2048
4 1163 1042 1017 1260
4 2217 2205 2253 2235
4 2175 2162 2119 2124
4 936 884 913 774
4 1102 1231 1239 1273
4 1231 1239 1273 1360
4 1231 1239 1360 1370
4 1239 1360 1370 1322
4 934 906 1055 991
4 1147 1086 995 903
4 1650 1639 1653 1598
4 1589 1615 1582 1572
4 1845 1840 1787 1832
4 1845 1840 1832 1887
4 1832 1845 1887 1850
4 1787 1845 1832 1801
4 1845 1832 1801 1850
4 1801 1845 1850 1837
4 1850 1801 1837 1807
4 1850 1801 1807 1800
4 1807 1850 1800 1867
4 1801 1807 1800 1756
4 1800 1807 1867 1825
4 1807 1800 1756 1767
4 1807 1800 1767 1825
4 1635 1612 1668 1639
4 1612 1668 1639 1653
4 2101 2085 2150 2136
4 1595 1609 1654 1600
4 825 884 847 648
4 2201 2154 2115 2182
4 2115 2201 2182 2176
4 2182 2115 2176 2098
4 2182 2115 2098 2126
4 2201 2182 2176 2232
4 2201 2182 2232 2225
4 2182 2176 2232 2220
4 2201 2154 2182 2225
4 2154 2115 2182 2126
4 2194 2175 2119 2200
4 1547 1554 1517 1546
4 1554 1517 1546 1542
4 1517 1546 1542 1471
4 1546 1554 1542 1607
4 790 720 654 681
4 1634 1663 1605 1618
4 960 1004 1143 1007
4 927 789 734 847
4 1456 1446 1452 1350
4 1153 956 1006 942
4 1047 1173 1160 953
4 1160 1047 953 978
4 1047 953 978 855
4 1047 1173 953 942
4 953 1047 942 855
4 2154 2153 2195 2242
4 2179 2211 2162 2168
4 2179 2211 2168 2205
4 2168 2179 2205 2150
4 2179 2205 2150 2213
4 2205 2168 2150 2206
4 2150 2205 2206 2145
4 2168 2179 2150 2124
4 2179 2150 2124 2085
4 2168 2179 2124 2162
4 2179 2124 2162 2175
4 1639 1665 1690 1680
4 1690 1639 1680 1668
4 1665 1690 1680 1711
4 1639 1665 1680 1660
4 1680 1639 1660 1668
4 1690 1680 1711 1699
4 1680 1711 1699 1678
4 1680 1711 1678 1665
4 1711 1699 1678 1691
4 1182 1300 1169 1258
4 1182 1300 1258 1301
4 2180 2098 2182 2176
4 1239 1273 1360 1340
4 1239 1273 1340 1177
4 1247 1196 1295 1369
4 1084 926 1062 965
4 2158 2186 2223 2204
4 1042 1135 991 845
4 1453 1501 1425 1492
4 1609 1595 1569 1600
4 1569 1609 1600 1616
4 1600 1569 1616 1556
4 1609 1600 1616 1674
4 2130 2096 2054 2070
4 1913 1919 1971 1923
4 1840 1879 1864 1887
4 1552 1546 1598 1547
4 1393 1436 1342 1331
4 1342 1393 1331 1299
4 1456 1350 1327 1446
4 1801 1845 1837 1792
4 1837 1801 1792 1775
4 1801 1845 1792 1787
4 1845 1792 1787 1822
4 1792 1787 1822 1789
4 1822 1792 1789 1812
4 1792 1801 1787 1752
4 1787 1792 1752 1738
4 1752 1787 1738 1757
4 1845 1792 1822 1848
4 1792 1822 1848 1812
4 2283 2265 2275 2245
4 2265 2275 2245 2251
4 1837 1801 1775 1807
4 1801 1775 1807 1767
4 960 779 873 811
4 2045 2059 2128 2100
4 1635 1664 1660 1700
4 1784 1774 1750 1716
4 1184 1131 1266 1331
4 978 1047 855 1021
4 855 978 1021 883
4 855 978 883 804
4 883 855 804 786
4 978 883 804 867
4 804 883 786 739
4 883 804 867 807
4 804 883 739 807
4 978 1047 1021 1166
4 978 1047 1166 1160
4 1047 1166 1160 1235
4 1166 1160 1235 1315
4 1235 1166 1315 1243
4 1047 1166 1235 1021
4 1166 978 1160 1228
4 1160 1166 1228 1315
4 1634 1671 1692 1677
4 945 926 808 939
4 926 808 939 853
4 939 926 853 965
4 926 853 965 891
4 853 965 891 909
4 939 926 965 1062
4 853 939 965 748
4 926 853 891 808
4 891 853 909 715
4 939 926 1062 945
4 853 965 909 748
4 965 926 891 1033
4 853 891 808 715
4 965 891 909 992
4 891 909 992 884
4 965 891 992 1033
4 808 939 853 748
4 891 926 808 1033
4 992 891 884 825
4 992 891 825 896
4 992 891 896 1033
4 891 825 896 715
4 891 884 825 715
4 853 808 748 715
4 909 853 748 715
4 1062 939 945 984
4 1062 939 984 959
4 945 1062 984 1128
4 984 1062 959 1098
4 984 1062 1098 1232
4 884 825 715 648
4 1641 1585 1629 1604
4 1629 1641 1604 1685
4 1142 990 1127 1261
4 1824 1808 1781 1768
4 1808 1781 1768 1761
4 1781 1824 1768 1791
4 1768 1781 1791 1772
4 1781 1824 1791 1817
4 1781 1768 1761 1736
4 1781 1768 1736 1772
4 1824 1791 1817 1860
4 1791 1781 1817 1772
4 1605 1634 1618 1571
4 2270 2254 2273 2227
4 1554 1529 1496 1499
4 1296 1332 1321 1201
4 1356 1338 1260 1261
4 2180 2127 2098 2167
4 1207 1289 1247 1295
4 2140 2143 2104 2227
4 1585 1548 1533 1538
4 1548 1533 1538 1487
4 1587 1550 1580 1612
4 1550 1580 1612 1571
4 1173 1182 1011 942
4 2154 2147 2115 2064
4 2147 2115 2064 2095
4 1525 1571 1519 1547
4 1408 1416 1332 1372
4 1560 1494 1522 1538
4 1360 1239 1340 1322
4 1896 1898 1903 1848
4 1898 1903 1848 1855
4 1848 1898 1855 1822
4 1903 1896 1848 1837
4 1848 1903 1837 1812
4 1898 1903 1855 1923
4 1903 1848 1855 1812
4 1855 1848 1822 1812
4 1192 1078 1053 1272
4 1028 1053 953 867
4 2177 2148 2132 2245
4 1519 1449 1525 1547
4 1143 960 1007 990
4 2116 2185 2147 2158
4 1529 1499 1482 1496
4 1610 1597 1560 1604
4 1239 1102 1273 1177
4 1624 1667 1648 1654
4 1546 1552 1493 1517
4 1493 1546 1517 1471
4 1546 1552 1517 1547
4 1595 1572 1569 1522
4 1822 1789 1855 1812
4 1642 1603 1632 1622
4 1642 1603 1622 1639
4 1189 1238 1268 1033
4 1189 1238 1033 1066
4 1235 1315 1301 1243
4 2275 2283 2245 2250
4 2283 2245 2250 2248
4 2245 2250 2248 2177
4 2283 2245 2248 2265
4 1634 1663 1618 1677
4 1792 1801 1752 1775
4 1752 1792 1775 1744
4 1496 1547 1517 1485
4 1896 1898 1848 1845
4 1848 1896 1845 1837
4 1845 1848 1837 1792
4 1848 1837 1792 1812
4 1729 1768 1791 1772
4 1557 1499 1554 1542
4 1499 1554 1542 1517
4 1554 1557 1542 1607
4 950 769 934 780
4 1006 942 1182 1153
4 2260 2223 2236 2252
4 978 1021 883 1107
4 978 1021 1107 1166
4 1107 978 1166 1124
4 1166 1107 1124 1274
4 1557 1594 1542 1607
4 2057 2040 1983 2007
4 1983 2057 2007 1986
4 2219 2185 2158 2147
4 2007 2045 1986 2057
4 1824 1817 1875 1860
4 1589 1645 1609 1616
4 1645 1609 1616 1674
4 1609 1589 1616 1569
4 1681 1667 1716 1648
4 1327 1456 1446 1401
4 1055 906 1018 1041
4 1832 1801 1850 1756
4 1775 1837 1807 1829
4 1807 1775 1829 1767
4 2130 2154 2126 2054
4 1079 1147 903 1042
4 1332 1321 1201 1372
4 2150 2205 2145 2188
4 1296 1332 1201 1228
4 1201 1296 1228 1124
4 1228 1201 1124 1028
4 1296 1228 1124 1274
4 1332 1201 1228 1244
4 1296 1332 1228 1373
4 1456 1453 1350 1452
4 896 808 1033 891
4 896 808 891 715
4 1047 1182 942 1030
4 942 1047 1030 855
4 2154 2116 2147 2064
4 2156 2130 2195 2199
4 2130 2195 2199 2144
4 1207 1045 1153 1023
4 2094 2169 2097 2105
4 2263 2242 2260 2201
4 960 1004 1007 811
4 1648 1624 1654 1610
4 1624 1572 1595 1575
4 1572 1595 1575 1522
4 1584 1640 1631 1621
4 1640 1631 1621 1687
4 1887 1896 1951 1911
4 2115 2201 2176 2095
4 1817 1834 1875 1857
4 1834 1875 1857 1869
4 1817 1834 1857 1794
4 1817 1834 1794 1781
4 960 873 1004 811
4 1496 1547 1485 1449
4 1384 1404 1479 1455
4 1384 1404 1455 1281
4 1111 1022 1204 1154
4 1801 1752 1775 1756
4 1416 1296 1321 1299
4 978 1166 1124 1228
4 1166 1124 1228 1274
4 1148 1244 1028 1201
4 1148 1244 1201 1229
4 2141 2144 2070 2096
4 2144 2070 2096 2130
4 1727 1778 1747 1739
4 1727 1778 1739 1735
4 1727 1778 1735 1731
4 1735 1727 1731 1677
4 1747 1727 1739 1692
4 1727 1739 1692 1735
4 883 978 1107 867
4 1634 1692 1663 1677
4 1585 1548 1538 1569
4 1548 1538 1569 1509
4 1569 1548 1509 1556
4 1538 1569 1509 1522
4 1548 1538 1509 1487
4 1529 1482 1513 1496
4 1837 1850 1807 1867
4 1808 1834 1781 1788
4 1834 1781 1788 1794
4 1787 1792 1738 1789
4 2237 2244 2264 2203
4 2237 2244 2203 2207
4 2150 2168 2124 2099
4 2150 2168 2099 2184
4 2098 2173 2182 2126
4 2029 2048 1997 1982
4 1997 2029 1982 1977
4 1997 2029 1977 1990
4 2029 2048 1982 2024
4 2048 1982 2024 1971
4 1982 2024 1971 1945
4 1971 1982 1945 1903
4 2029 1982 1977 2035
4 1517 1496 1485 1458
4 1517 1496 1458 1499
4 1496 1458 1499 1482
4 1496 1485 1458 1339
4 2284 2260 2280 2288
4 1641 1585 1604 1595
4 1496 1550 1547 1519
4 1547 1496 1519 1449
4 723 679 681 826
4 723 679 826 815
4 723 679 815 750
4 815 723 750 811
4 681 723 826 873
4 723 826 873 815
4 1273 1231 1360 1350
4 1624 1595 1654 1610
4 1393 1436 1331 1381
4 1068 973 924 1125
4 973 924 1125 848
4 891 909 884 715
4 1021 1107 1166 1243
4 1707 1716 1757 1706
4 1707 1716 1706 1648
4 934 790 769 906
4 1332 1408 1372 1244
4 2126 2169 2094 2173
4 1800 1756 1767 1748
4 1767 1800 1748 1825
4 1756 1767 1748 1717
4 1767 1748 1717 1724
4 1767 1748 1724 1731
4 1748 1717 1724 1687
4 1717 1767 1724 1743
4 1767 1724 1743 1771
4 1767 1724 1771 1731
4 1717 1767 1743 1775
4 1743 1767 1771 1829
4 1808 1834 1788 1830
4 1834 1788 1830 1805
4 1788 1808 1830 1761
4 1788 1808 1761 1781
4 1830 1788 1761 1762
4 1788 1761 1762 1736
4 1830 1788 1762 1805
4 1788 1761 1736 1781
4 1611 1659 1669 1644
4 1659 1669 1644 1718
4 1303 1218 1250 1214
4 1218 1250 1214 1165
4 1333 1217 1223 1338
4 1333 1217 1338 1240
4 1787 1840 1774 1797
4 1271 1238 1084 1268
4 2254 2259 2273 2221
4 2254 2259 2221 2231
4 2273 2254 2221 2227
4 2221 2273 2227 2233
4 2227 2221 2233 2143
4 2221 2273 2233 2259
4 2254 2221 2227 2191
4 2221 2227 2191 2104
4 2045 2114 2057 2071
4 1990 2044 2070 2054
4 2242 2263 2225 2201
4 1017 873 991 1101
4 1042 991 1017 846
4 1494 1433 1522 1495
4 1522 1494 1495 1538
4 1724 1743 1771 1718
4 1575 1610 1595 1624
4 2261 2288 2280 2260
4 1711 1746 1761 1753
4 1107 978 1124 867
4 884 1060 913 1106
4 1781 1817 1772 1794
4 1824 1768 1791 1808
4 1898 1855 1822 1879
4 1761 1786 1808 1830
4 1834 1857 1794 1869
4 1453 1425 1350 1367
4 1449 1461 1525 1485
4 1525 1449 1485 1547
4 2075 2121 2082 2149
4 2082 2075 2149 2030
4 1447 1524 1468 1448
4 1468 1447 1448 1375
4 1748 1756 1717 1696
4 1717 1748 1696 1687
4 1756 1717 1696 1714
4 1809 1761 1808 1768
4 1774 1840 1836 1797
4 1896 1910 1924 1951
4 2154 2195 2126 2225
4 1047 1182 1030 1235
4 1610 1656 1597 1626
4 1597 1610 1626 1604
4 1963 1928 1983 1986
4 1639 1690 1653 1668
4 1817 1791 1772 1835
4 1772 1817 1835 1816
4 1817 1835 1816 1857
4 1772 1817 1816 1794
4 1816 1817 1857 1794
4 1817 1791 1835 1860
4 1142 1013 990 1157
4 1013 990 1157 1007
4 1157 1013 1007 1167
4 1013 1007 1167 924
4 1013 1007 924 878
4 1013 1007 878 990
4 1007 924 878 811
4 878 1007 811 960
4 878 1007 960 990
4 990 1142 1157 1261
4 1239 1340 1322 1177
4 1775 1837 1829 1812
4 1492 1469 1367 1450
4 1492 1469 1450 1526
4 1085 1154 1111 1268
4 2245 2248 2265 2210
4 2245 2248 2210 2132
4 1184 1040 1131 1187
4 1131 1184 1187 1331
4 1653 1692 1690 1702
4 2096 2144 2130 2170
4 1525 1577 1571 1565
4 1577 1571 1565 1618
4 1565 1577 1618 1578
4 1577 1618 1578 1631
4 1577 1618 1631 1625
4 1577 1618 1625 1571
4 1618 1631 1625 1677
4 1625 1618 1677 1634
4 1625 1618 1634 1571
4 1571 1525 1565 1547
4 1565 1571 1547 1605
4 1822 1845 1848 1898
4 1423 1488 1477 1470
4 965 1111 1204 1139
4 965 1111 1139 1084
4 1111 1204 1139 1268
4 1663 1653 1655 1702
4 679 826 815 824
4 815 679 824 696
4 1585 1629 1604 1574
4 2007 2045 2057 2071
4 1153 1258 1203 1149
4 1153 1258 1149 1182
4 1153 1258 1182 1169
4 2147 2201 2115 2095
4 1021 855 883 786
4 1382 1420 1271 1355
4 1271 1382 1355 1290
4 1271 1382 1290 1319
4 1382 1355 1290 1458
4 1382 1420 1355 1493
4 1382 1290 1319 1458
4 826 815 824 975
4 815 824 975 916
4 824 975 916 1103
4 826 815 975 873
4 815 824 916 696
4 975 815 916 1005
4 815 916 1005 881
4 975 815 1005 1004
4 1005 815 881 750
4 815 881 750 739
4 916 975 1005 1165
4 815 916 881 739
4 916 1005 881 1019
4 881 916 1019 874
4 916 1005 1019 1165
4 1005 1019 1165 1096
4 1005 1019 1096 881
4 1019 881 874 908
4 881 874 908 739
4 1019 881 908 915
4 1019 881 915 1096
4 915 1019 1096 1118
4 1096 915 1118 1121
4 1096 915 1121 1214
4 915 1118 1121 986
4 1118 1096 1121 1299
4 1121 915 986 910
4 915 986 910 807
4 986 1121 910 1040
4 915 1118 986 908
4 915 1019 1118 908
4 1019 1096 1118 1222
4 1096 1118 1222 1299
4 1118 1222 1299 1274
4 1118 1019 1222 1107
4 1118 1121 986 1174
4 1121 986 1174 1040
4 1118 1121 1174 1299
4 881 908 915 807
4 881 908 807 739
4 915 881 807 848
4 908 915 807 986
4 874 1019 908 1107
4 986 1118 1174 1124
4 1174 986 1124 988
4 1118 1174 1124 1274
4 916 1019 874 1156
4 824 826 975 1064
4 881 916 874 739
4 1019 1165 1096 1222
4 1183 1271 1084 1128
4 1724 1717 1743 1686
4 1743 1724 1686 1718
4 1717 1743 1686 1725
4 1724 1717 1686 1687
4 1552 1598 1602 1605
4 1598 1602 1605 1655
4 1605 1598 1655 1653
4 1837 1807 1829 1867
4 1356 1260 1280 1143
4 1260 1280 1143 1181
4 1143 1260 1181 1017
4 2264 2237 2203 2259
4 1547 1517 1485 1536
4 1517 1485 1536 1493
4 1547 1517 1536 1552
4 1517 1536 1552 1493
4 1485 1547 1536 1565
4 1547 1536 1565 1605
4 1536 1565 1605 1578
4 2176 2232 2220 2251
4 845 903 720 846
4 720 845 846 681
4 1768 1761 1736 1711
4 1736 1768 1711 1690
4 1555 1544 1582 1526
4 1436 1331 1381 1344
4 1331 1381 1344 1266
4 1436 1331 1344 1342
4 1792 1837 1775 1812
4 1533 1585 1538 1574
4 2097 2094 2105 2029
4 2097 2094 2029 2144
4 1778 1735 1731 1813
4 1822 1879 1845 1898
4 2279 2265 2283 2248
4 2254 2221 2191 2175
4 1639 1612 1653 1598
4 2224 2223 2266 2242
4 1631 1584 1621 1578
4 1584 1621 1578 1576
4 1621 1578 1576 1611
4 1578 1584 1576 1528
4 1584 1621 1576 1597
4 708 774 648 884
4 1004 1143 1007 1162
4 1143 1007 1162 1167
4 1007 1004 1162 1056
4 1007 1004 1056 811
4 1004 1143 1162 1181
4 1004 1162 1056 1218
4 1162 1007 1056 1125
4 1056 1162 1125 1214
4 1162 1125 1214 1303
4 1125 1056 1214 1121
4 1056 1162 1214 1218
4 1162 1214 1218 1303
4 1218 1162 1303 1280
4 1218 1162 1280 1181
4 1162 1303 1280 1380
4 1007 1056 1125 924
4 1056 1125 924 848
4 1007 1056 924 811
4 924 1056 848 811
4 1125 1007 924 1167
4 1125 1007 1167 1162
4 1167 1125 1162 1303
4 1977 1997 1990 1923
4 1778 1739 1735 1783
4 1735 1778 1783 1813
4 1739 1735 1783 1733
4 1739 1735 1733 1692
4 1783 1739 1733 1758
4 1735 1783 1733 1771
4 1266 1131 1220 1344
4 679 815 750 696
4 1225 1240 1086 989
4 1004 1017 1181 1101
4 1321 1296 1201 1174
4 1296 1201 1174 1124
4 1174 1296 1124 1274
4 1201 1174 1124 988
4 1503 1492 1425 1501
4 1479 1384 1455 1461
4 1711 1699 1761 1736
4 1560 1597 1540 1576
4 1165 1005 1096 1214
4 2104 2143 2113 2221
4 2233 2221 2259 2197
4 2233 2221 2197 2113
4 2221 2259 2197 2231
4 1493 1552 1505 1536
4 1449 1461 1485 1352
4 1663 1605 1618 1627
4 1605 1618 1627 1578
4 1618 1663 1627 1670
4 1618 1663 1670 1677
4 1627 1618 1670 1621
4 1670 1627 1621 1644
4 1627 1621 1644 1611
4 1621 1670 1644 1686
4 1670 1627 1644 1659
4 1670 1644 1686 1718
4 1627 1644 1659 1611
4 1644 1621 1686 1638
4 1644 1621 1638 1611
4 1686 1644 1638 1669
4 1686 1644 1669 1718
4 1644 1638 1669 1611
4 1659 1627 1611 1602
4 1659 1627 1602 1655
4 1638 1686 1669 1685
4 1627 1611 1602 1563
4 1618 1670 1621 1631
4 1670 1621 1631 1687
4 1618 1670 1631 1677
4 1631 1670 1687 1677
4 1663 1605 1627 1655
4 1621 1618 1631 1578
4 1621 1618 1578 1627
4 1578 1621 1627 1611
4 1663 1627 1670 1659
4 1273 1360 1340 1409
4 1340 1273 1409 1348
4 1273 1409 1348 1341
4 1273 1409 1341 1350
4 1409 1348 1341 1445
4 1341 1409 1445 1410
4 1409 1445 1410 1453
4 1445 1341 1410 1358
4 1410 1409 1453 1350
4 1453 1410 1350 1452
4 1410 1350 1452 1323
4 1410 1350 1323 1341
4 1323 1410 1341 1358
4 1341 1323 1358 1227
4 1323 1358 1227 1270
4 1323 1358 1270 1386
4 1341 1323 1227 1273
4 1358 1341 1227 1277
4 1452 1410 1323 1358
4 1227 1323 1270 1196
4 1358 1227 1270 1288
4 1270 1358 1288 1386
4 1453 1410 1452 1445
4 1445 1341 1358 1413
4 1341 1409 1410 1350
4 1410 1452 1445 1358
4 1323 1270 1196 1386
4 1288 1270 1386 1197
4 1288 1270 1197 1227
4 1270 1386 1197 1196
4 1197 1270 1196 1227
4 1227 1358 1277 1288
4 1409 1348 1445 1487
4 1445 1409 1487 1500
4 1445 1409 1500 1453
4 1409 1500 1453 1509
4 1273 1360 1409 1350
4 1340 1273 1348 1211
4 1340 1273 1211 1177
4 1211 1340 1177 1297
4 1177 1211 1297 1136
4 1177 1211 1136 967
4 1211 1297 1136 1236
4 1211 1297 1236 1348
4 1136 1211 1236 1099
4 1136 1211 1099 967
4 1099 1136 967 914
4 967 1099 914 852
4 1211 1236 1099 1348
4 1297 1177 1136 1132
4 1177 1136 1132 967
4 1211 1099 967 1102
4 1236 1136 1099 1110
4 1136 1099 1110 914
4 1211 1340 1297 1348
4 1099 1236 1110 1176
4 1273 1348 1211 1208
4 1273 1348 1208 1341
4 1236 1110 1176 1269
4 1297 1136 1236 1252
4 1236 1297 1252 1375
4 1136 1236 1252 1110
4 1099 1236 1176 1302
4 1236 1176 1302 1269
4 1348 1211 1208 1099
4 1211 1208 1099 1102
4 1360 1340 1409 1434
4 1360 1340 1434 1322
4 1340 1409 1434 1487
4 1409 1360 1434 1453
4 1110 1099 1176 982
4 1110 1099 982 914
4 1099 1176 982 1071
4 1099 1176 1071 1302
4 982 1099 1071 852
4 1176 1110 982 1190
4 1176 982 1071 1077
4 1071 1176 1077 1200
4 1176 1077 1200 1190
4 1077 1200 1190 1129
4 1077 1200 1129 1075
4 1077 1200 1075 1138
4 1077 1200 1138 1071
4 1138 1077 1071 940
4 1071 1138 940 1025
4 1071 1138 1025 1227
4 1200 1075 1138 1213
4 1075 1138 1213 1044
4 1138 1213 1044 1288
4 1138 1077 940 1075
4 1138 940 1025 1044
4 1213 1075 1044 1185
4 940 1071 1025 852
4 1138 1200 1213 1277
4 1138 1200 1277 1071
4 1213 1138 1277 1288
4 1077 1071 940 982
4 1176 982 1077 1190
4 1200 1075 1213 1129
4 1075 1138 1044 940
4 1409 1340 1348 1487
4 1211 1273 1208 1102
4 2124 2150 2099 2042
4 2064 2147 2095 2158
4 924 1068 1125 1167
4 1068 1125 1167 1306
4 2132 2148 2095 2181
4 2132 2148 2181 2245
4 1021 883 1107 1016
4 1107 1021 1016 1243
4 883 1107 1016 874
4 1021 883 1016 786
4 1016 883 874 786
4 2176 2201 2232 2251
4 953 978 855 867
4 1847 1834 1901 1875
4 1565 1577 1578 1528
4 1736 1788 1781 1794
4 685 717 648 847
4 1157 1013 1167 1171
4 2265 2245 2210 2251
4 1875 1817 1857 1835
4 1875 1817 1835 1860
4 965 939 1062 976
4 939 1062 976 959
4 965 939 976 748
4 976 939 959 821
4 959 976 821 914
4 1540 1494 1560 1541
4 1560 1540 1541 1576
4 1540 1541 1576 1523
4 1541 1576 1523 1574
4 1576 1540 1523 1528
4 1494 1560 1541 1538
4 1540 1494 1541 1523
4 2048 1982 1971 1997
4 1982 1971 1997 1923
4 1277 1138 1071 1227
4 1933 1931 1908 1860
4 1433 1522 1495 1509
4 1456 1516 1453 1452
4 2194 2228 2175 2231
4 2175 2194 2231 2200
4 2228 2175 2231 2254
4 1778 1739 1783 1794
4 1184 1040 1187 1191
4 1187 1184 1191 1321
4 1040 1187 1191 1121
4 1184 1040 1191 1229
4 863 779 960 878
4 779 960 878 811
4 960 863 878 990
4 1068 973 1125 1131
4 1656 1597 1626 1640
4 1085 1111 1033 1268
4 936 913 1018 774
4 1005 815 750 811
4 1447 1524 1448 1505
4 1458 1437 1482 1414
4 1355 1271 1290 1188
4 1271 1290 1188 1128
4 1290 1355 1188 1232
4 1188 1290 1232 1128
4 1432 1357 1423 1229
4 1525 1577 1565 1528
4 2244 2264 2203 2210
4 1982 1997 1977 1923
4 1584 1640 1621 1597
4 1857 1816 1794 1826
4 1857 1816 1826 1876
4 1857 1816 1876 1871
4 1857 1816 1871 1835
4 1816 1871 1835 1866
4 1871 1835 1866 1894
4 1871 1835 1894 1875
4 1866 1871 1894 1917
4 1866 1871 1917 1876
4 1826 1857 1876 1905
4 1871 1894 1917 1933
4 1871 1835 1875 1857
4 1816 1876 1871 1866
4 1794 1857 1826 1869
4 1876 1857 1871 1914
4 1876 1857 1914 1905
4 1857 1871 1914 1875
4 1871 1876 1914 1917
4 1816 1826 1876 1815
4 1914 1871 1917 1933
4 1494 1433 1495 1442
4 1495 1494 1442 1538
4 1433 1495 1442 1438
4 1495 1442 1438 1538
4 1433 1495 1438 1434
4 1495 1438 1434 1509
4 1438 1434 1509 1487
4 1438 1433 1434 1322
4 1434 1495 1509 1433
4 1434 1438 1322 1340
4 1434 1438 1340 1487
4 1438 1322 1340 1377
4 1340 1438 1377 1426
4 1340 1438 1426 1487
4 1322 1340 1377 1177
4 1377 1340 1426 1297
4 1377 1340 1297 1177
4 1426 1377 1297 1468
4 1438 1377 1426 1481
4 1426 1438 1481 1487
4 1438 1377 1481 1442
4 1377 1481 1442 1455
4 1481 1442 1455 1523
4 1442 1377 1455 1404
4 1455 1442 1404 1479
4 1442 1377 1404 1322
4 1404 1442 1322 1433
4 1404 1442 1433 1494
4 1404 1442 1494 1479
4 1438 1377 1442 1322
4 1442 1455 1523 1479
4 1455 1523 1479 1461
4 1481 1438 1442 1538
4 1495 1438 1509 1538
4 1509 1495 1538 1522
4 1438 1433 1322 1442
4 1377 1426 1481 1468
4 1426 1481 1468 1487
4 1468 1426 1487 1413
4 1426 1487 1413 1348
4 1413 1426 1348 1375
4 1468 1426 1413 1375
4 1426 1487 1348 1340
4 1348 1426 1340 1297
4 1297 1377 1177 1281
4 1297 1377 1281 1361
4 1297 1377 1361 1448
4 1377 1361 1448 1455
4 1361 1448 1455 1460
4 1448 1455 1460 1520
4 1448 1455 1520 1481
4 1448 1455 1481 1377
4 1361 1448 1460 1447
4 1460 1448 1520 1524
4 1448 1520 1524 1481
4 1481 1448 1377 1468
4 1455 1460 1520 1523
4 1520 1455 1523 1481
4 1297 1377 1448 1468
4 1481 1448 1468 1524
4 1455 1361 1460 1384
4 1520 1460 1524 1505
4 1524 1520 1505 1563
4 1524 1520 1563 1574
4 1524 1520 1574 1533
4 1281 1297 1361 1132
4 1377 1281 1361 1455
4 1361 1297 1448 1375
4 1536 1485 1565 1491
4 1565 1536 1491 1578
4 1536 1485 1491 1475
4 1491 1536 1475 1563
4 1536 1485 1475 1493
4 1321 1296 1174 1299
4 1296 1174 1299 1274
4 1880 1847 1904 1824
4 845 790 991 681
4 1204 1111 1154 1268
4 2211 2162 2168 2160
4 1040 1131 1187 973
4 1619 1671 1634 1625
4 1671 1634 1625 1677
4 1634 1619 1625 1571
4 1118 1222 1274 1107
4 1062 976 959 1144
4 976 959 1144 1110
4 1408 1332 1325 1244
4 1436 1405 1342 1344
4 2130 2116 2154 2054
4 2163 2177 2132 2248
4 1610 1656 1626 1662
4 1626 1610 1662 1654
4 1656 1626 1662 1683
4 1626 1662 1683 1654
4 1662 1656 1683 1714
4 1656 1626 1683 1640
4 1610 1656 1662 1648
4 1797 1757 1774 1787
4 1297 1136 1252 1132
4 1136 1252 1132 1144
4 679 826 824 644
4 1350 1425 1327 1248
4 1327 1350 1248 1230
4 1327 1350 1230 1323
4 1248 1327 1230 1137
4 1350 1248 1230 1231
4 1350 1230 1323 1273
4 1230 1248 1137 1092
4 1137 1230 1092 1196
4 1137 1230 1196 1327
4 1230 1092 1196 1227
4 2075 2121 2149 2113
4 1142 1013 1157 1171
4 1712 1689 1667 1716
4 2220 2176 2251 2244
4 1211 1273 1102 1177
4 1102 1211 1177 967
4 819 903 846 720
4 1801 1787 1752 1757
4 1028 1192 1053 1272
4 971 847 787 825
4 2121 2082 2149 2132
4 1669 1686 1718 1725
4 1332 1201 1244 1372
4 1197 1295 1386 1326
4 1461 1479 1528 1523
4 1479 1528 1523 1540
4 1523 1479 1540 1494
4 2113 2151 2121 2197
4 1528 1584 1577 1578
4 1584 1577 1578 1631
4 986 910 807 867
4 986 910 867 988
4 867 986 988 1124
4 986 910 988 1040
4 807 986 867 908
4 986 867 908 1107
4 867 807 908 883
4 908 867 883 1107
4 883 908 1107 874
4 883 908 874 739
4 2095 2132 2181 2082
4 1192 1263 1228 1028
4 1176 1302 1269 1190
4 2195 2126 2225 2169
4 1361 1448 1447 1375
4 1228 1296 1373 1274
4 1571 1519 1547 1550
4 2252 2204 2261 2219
4 939 945 984 860
4 984 939 860 959
4 939 860 959 821
4 939 860 821 748
4 939 860 748 808
4 939 860 808 945
4 1757 1707 1706 1714
4 1096 915 1214 1056
4 1214 1096 1056 1005
4 845 903 846 1042
4 846 845 1042 991
4 1487 1413 1348 1445
4 1413 1348 1445 1341
4 1413 1348 1341 1308
4 1413 1348 1308 1375
4 1348 1341 1308 1208
4 1308 1348 1208 1236
4 1308 1348 1236 1375
4 1425 1350 1367 1248
4 1544 1553 1556 1498
4 1544 1553 1498 1492
4 1553 1556 1498 1453
4 1416 1373 1296 1274
4 2259 2264 2277 2226
4 2264 2277 2226 2241
4 2277 2226 2241 2233
4 2226 2241 2233 2151
4 2277 2226 2233 2259
4 2226 2264 2241 2203
4 2226 2264 2203 2259
4 2241 2226 2203 2121
4 2226 2233 2259 2197
4 2226 2233 2197 2151
4 2259 2226 2197 2203
4 2226 2197 2203 2121
4 1196 1203 1197 1020
4 1203 1197 1020 1149
4 1197 1196 1020 1025
4 2182 2173 2232 2225
4 1171 1068 1013 1167
4 1068 1013 1167 924
4 1171 1068 1167 1306
4 1250 1303 1214 1342
4 1448 1460 1447 1505
4 1983 1928 1966 1986
4 1360 1231 1370 1367
4 2148 2095 2181 2201
4 1099 967 1102 961
4 2195 2222 2242 2153
4 1212 1173 1078 1160
4 1618 1565 1578 1605
4 1618 1565 1605 1571
4 1602 1605 1655 1627
4 1602 1605 1627 1578
4 2162 2211 2194 2160
4 1635 1668 1671 1700
4 1824 1846 1860 1904
4 1816 1794 1826 1783
4 1794 1826 1783 1844
4 1826 1783 1844 1813
4 1876 1816 1815 1866
4 989 863 960 990
4 819 846 779 720
4 1355 1271 1188 1253
4 1271 1188 1253 1084
4 1188 1355 1253 1262
4 1253 1188 1262 1144
4 1262 1253 1144 1349
4 1188 1262 1144 1254
4 1355 1253 1262 1427
4 1188 1355 1262 1254
4 1355 1271 1253 1420
4 1253 1188 1144 1062
4 1929 1930 1972 1973
4 1929 1930 1973 1917
4 1972 1929 1973 1974
4 1972 1929 1974 1989
4 1929 1973 1974 1941
4 1929 1973 1941 1917
4 1974 1929 1941 1915
4 1973 1974 1941 2004
4 1941 1973 2004 1961
4 1941 1973 1961 1917
4 2004 1941 1961 2001
4 1961 2004 2001 2069
4 1973 2004 1961 2069
4 1974 1941 2004 1968
4 1974 1941 1968 1915
4 2004 1974 1968 2032
4 1974 1968 2032 1956
4 1973 1974 2004 2038
4 2004 1973 2038 2069
4 1974 2004 2038 2032
4 1973 1974 2038 1972
4 1941 2004 1968 2013
4 1968 2004 2032 2013
4 2004 2001 2069 2013
4 2004 2001 2013 1941
4 1318 1289 1207 1153
4 1612 1619 1634 1571
4 1493 1505 1427 1475
4 1493 1505 1475 1536
4 937 899 1086 989
4 1084 1183 1128 945
4 874 883 739 786
4 1001 903 845 1042
4 1715 1750 1716 1784
4 1280 1143 1181 1162
4 1280 1143 1162 1282
4 2104 2113 2065 2142
4 2104 2113 2142 2221
4 2113 2065 2142 2075
4 2065 2104 2142 2063
4 1323 1452 1358 1386
4 1382 1441 1319 1316
4 1538 1585 1569 1595
4 1203 1153 1149 956
4 1153 1149 956 1030
4 1153 1149 1030 1182
4 1149 956 1030 856
4 2273 2259 2277 2233
4 1845 1850 1837 1896
4 2205 2253 2235 2267
4 2147 2116 2158 2064
4 1264 1229 1372 1244
4 1748 1724 1731 1687
4 1190 1168 1269 1110
4 1341 1308 1208 1277
4 1732 1784 1738 1789
4 2228 2179 2175 2254
4 1525 1461 1528 1491
4 1461 1528 1491 1523
4 1525 1461 1491 1485
4 1528 1525 1491 1565
4 1525 1491 1565 1485
4 1007 1157 1167 1143
4 1007 1157 1143 990
4 1520 1524 1481 1533
4 1588 1582 1572 1526
4 1019 1118 908 1107
4 1118 908 1107 986
4 1670 1687 1677 1724
4 1498 1553 1453 1492
4 1453 1498 1492 1450
4 1453 1498 1450 1509
4 1498 1492 1450 1544
4 1498 1450 1509 1544
4 1509 1498 1544 1556
4 1492 1453 1450 1367
4 1269 1176 1190 1110
4 1217 1223 1338 1260
4 1338 1217 1260 1261
4 1217 1223 1260 989
4 1338 1217 1261 1240
4 1352 1232 1254 1355
4 2146 2112 2090 2068
4 2090 2146 2068 2092
4 2090 2146 2092 2155
4 2146 2092 2155 2200
4 2068 2090 2092 2025
4 2090 2092 2025 2069
4 2146 2068 2092 2119
4 2146 2068 2119 2112
4 2068 2090 2025 2058
4 2092 2068 2025 2016
4 2025 2092 2016 2038
4 2025 2092 2038 2069
4 2016 2025 2038 1973
4 2025 2038 1973 2069
4 2092 2016 2038 2081
4 2038 2092 2081 2117
4 2038 2092 2117 2080
4 2092 2081 2117 2155
4 2117 2092 2155 2080
4 2081 2038 2117 2062
4 2038 2117 2062 2032
4 2081 2038 2062 2030
4 2092 2016 2081 2111
4 2081 2092 2111 2200
4 2092 2016 2111 2068
4 2117 2081 2062 2134
4 2062 2117 2134 2167
4 2117 2134 2167 2207
4 2081 2062 2134 2030
4 2117 2081 2134 2207
4 2068 2025 2016 2000
4 2025 2016 2000 1973
4 2000 2025 1973 1976
4 2025 1973 1976 1961
4 1973 1976 1961 1917
4 1976 1961 1917 1914
4 2000 2025 1976 2068
4 1973 1976 1917 2000
4 2016 2068 2000 2015
4 2025 1973 1961 2069
4 2092 2090 2155 2069
4 2016 2081 2111 2023
4 2111 2016 2023 2015
4 2092 2081 2155 2200
4 2016 2081 2023 1972
4 2023 2016 1972 1930
4 1976 2025 1961 2027
4 1961 1976 2027 1965
4 2027 1961 1965 2001
4 1961 1965 2001 1940
4 2027 1961 2001 2069
4 1976 2025 2027 2058
4 2062 2038 2032 1974
4 2016 2038 2081 1972
4 2112 2090 2068 2058
4 1062 984 1128 1232
4 1322 1370 1433 1434
4 2245 2275 2250 2234
4 2250 2245 2234 2148
4 2245 2275 2234 2251
4 1563 1552 1602 1536
4 976 939 821 748
4 1380 1356 1280 1282
4 1062 976 1144 1139
4 976 1144 1139 1150
4 1144 1139 1150 1253
4 1144 1139 1253 1062
4 976 1144 1150 1110
4 1139 976 1150 979
4 1062 976 1139 965
4 976 1139 965 979
4 1982 2029 2024 2035
4 1056 848 811 750
4 1469 1367 1450 1370
4 1826 1816 1783 1815
4 1485 1496 1449 1339
4 2225 2195 2242 2154
4 2182 2180 2176 2220
4 1319 1285 1183 1316
4 1656 1714 1696 1683
4 1696 1656 1683 1640
4 1208 1273 1341 1227
4 1341 1208 1227 1277
4 1904 1943 1964 1901
4 1125 1214 1303 1342
4 1339 1449 1414 1496
4 1174 986 988 1040
4 1025 1138 1044 1197
4 2143 2151 2113 2233
4 1788 1762 1805 1736
4 1552 1563 1505 1536
4 1850 1801 1800 1756
4 1077 940 1075 911
4 1075 1077 911 1129
4 1077 940 911 982
4 1487 1445 1500 1556
4 1425 1492 1367 1453
4 1196 1203 1020 1023
4 1203 1020 1023 956
4 1788 1834 1794 1805
4 1409 1487 1500 1509
4 1191 1184 1229 1321
4 1680 1690 1668 1699
4 1485 1491 1475 1461
4 1119 1154 1060 884
4 1739 1747 1692 1736
4 1357 1432 1312 1229
4 2046 2095 2064 2115
4 1139 1253 1062 1084
4 2203 2244 2210 2172
4 2210 2203 2172 2149
4 2203 2172 2149 2171
4 2149 2203 2171 2197
4 2149 2203 2197 2121
4 2210 2203 2149 2121
4 2172 2149 2171 2134
4 2171 2172 2134 2207
4 2203 2172 2171 2207
4 2172 2149 2134 2082
4 2172 2210 2149 2132
4 2134 2171 2207 2081
4 2203 2244 2172 2207
4 2172 2149 2082 2132
4 2172 2134 2207 2220
4 2172 2134 2220 2176
4 2172 2134 2176 2108
4 2172 2134 2108 2082
4 2176 2172 2108 2181
4 2108 2172 2082 2181
4 2220 2172 2176 2244
4 2134 2176 2108 2098
4 2134 2220 2176 2180
4 1355 1188 1232 1254
4 2153 2202 2222 2242
4 1230 1196 1327 1323
4 1230 1196 1323 1227
4 1624 1648 1575 1610
4 1997 1987 1923 1971
4 1997 1987 1971 2048
4 1931 1928 1860 1894
4 1605 1598 1653 1612
4 826 681 873 991
4 1455 1361 1384 1281
4 1974 1972 1989 2038
4 789 631 774 788
4 1792 1752 1738 1744
4 1662 1610 1648 1654
4 1648 1662 1654 1706
4 1662 1654 1706 1683
4 1706 1662 1683 1714
4 1706 1662 1714 1648
4 1961 1976 1965 1914
4 1373 1272 1228 1315
4 1047 855 1021 1030
4 1021 1047 1030 1235
4 1756 1767 1717 1775
4 1685 1725 1744 1719
4 1685 1725 1719 1686
4 1744 1685 1719 1701
4 1685 1719 1701 1683
4 1719 1701 1683 1752
4 1719 1701 1752 1744
4 1683 1719 1752 1717
4 1683 1719 1717 1686
4 1752 1719 1744 1775
4 1752 1719 1775 1717
4 1744 1685 1701 1674
4 1725 1744 1719 1775
4 1724 1731 1687 1677
4 1160 1272 1315 1228
4 1160 1272 1228 1053
4 1228 1160 1053 978
4 1160 1053 978 953
4 1160 1053 953 1078
4 1053 978 953 867
4 1160 1272 1053 1078
4 1143 1260 1017 989
4 1523 1479 1494 1442
4 975 916 1103 1165
4 2004 2038 2032 2080
4 2032 2004 2080 2013
4 1835 1772 1816 1758
4 1772 1816 1758 1794
4 1086 899 903 989
4 1432 1423 1372 1229
4 1670 1687 1724 1686
4 1177 1297 1281 1132
4 1496 1513 1414 1482
4 1610 1626 1604 1654
4 1629 1574 1611 1576
4 1240 1113 1193 937
4 1165 1096 1222 1250
4 1165 1096 1250 1214
4 1096 1250 1214 1121
4 1096 1222 1250 1299
4 1096 1250 1121 1299
4 1341 1323 1273 1350
4 1131 1068 1220 1216
4 1220 1131 1216 1344
4 1068 1220 1216 1306
4 654 788 681 644
4 1712 1749 1715 1716
4 1705 1655 1702 1663
4 1182 942 1030 1153
4 1621 1670 1686 1687
4 1597 1584 1540 1576
4 1584 1540 1576 1528
4 1485 1547 1565 1525
4 1184 1187 1331 1321
4 1187 1331 1321 1257
4 1187 1331 1257 1255
4 1187 1331 1255 1216
4 1331 1257 1255 1299
4 1257 1187 1255 1121
4 1255 1257 1121 1299
4 1257 1121 1299 1174
4 1257 1121 1174 1191
4 1299 1257 1174 1321
4 1257 1187 1121 1191
4 1255 1187 1216 1125
4 1216 1255 1125 1306
4 1187 1255 1121 1125
4 1331 1255 1216 1344
4 1216 1331 1344 1131
4 1255 1216 1344 1306
4 1216 1344 1306 1220
4 1331 1255 1344 1342
4 1331 1255 1342 1299
4 1187 1331 1216 1131
4 1816 1815 1866 1835
4 1563 1611 1574 1573
4 1563 1611 1573 1578
4 1611 1574 1573 1576
4 1574 1573 1576 1523
4 1573 1576 1523 1578
4 1573 1576 1578 1611
4 1201 1321 1174 1191
4 1201 1321 1191 1229
4 1174 1201 1191 988
4 1201 1191 988 1229
4 1171 1220 1068 1306
4 2127 2173 2098 2105
4 1102 1231 1273 1092
4 2213 2136 2188 2150
4 909 979 1106 923
4 909 979 923 798
4 909 979 798 748
4 979 923 798 902
4 798 979 902 864
4 798 979 864 748
4 979 923 902 1094
4 979 902 864 1050
4 979 902 1050 1094
4 864 979 1050 976
4 923 909 798 775
4 909 798 775 715
4 923 909 775 913
4 798 923 775 674
4 902 798 864 733
4 798 864 733 748
4 733 798 748 677
4 733 798 677 674
4 798 748 677 715
4 902 798 733 674
4 864 902 733 802
4 733 864 802 821
4 733 864 821 748
4 864 802 821 914
4 864 821 748 976
4 864 821 976 914
4 902 864 1050 982
4 923 798 902 674
4 775 923 913 828
4 913 775 828 774
4 828 913 774 929
4 774 828 929 768
4 774 828 768 640
4 913 774 929 1018
4 929 774 768 788
4 828 929 768 912
4 768 828 912 660
4 828 929 912 1048
4 929 768 912 920
4 768 912 920 826
4 775 923 828 674
4 929 768 920 788
4 768 920 788 826
4 920 788 826 991
4 912 929 920 1041
4 929 920 1041 906
4 912 929 1041 1048
4 929 1041 1048 1018
4 929 1041 1018 906
4 920 912 1041 1064
4 912 1041 1064 1048
4 1041 920 1064 1101
4 920 912 1064 826
4 1018 929 906 774
4 828 913 929 1048
4 913 929 1048 1018
4 913 775 774 884
4 775 828 774 640
4 828 913 1048 923
4 913 1048 923 1106
4 774 768 788 644
4 768 788 644 826
4 913 775 884 909
4 920 929 788 906
4 788 920 906 991
4 979 1106 923 1094
4 1106 923 1094 1048
4 923 1094 1048 952
4 923 1094 952 902
4 1048 923 952 828
4 923 952 828 806
4 952 828 806 803
4 952 828 803 912
4 803 952 912 969
4 952 828 912 1048
4 912 803 969 824
4 912 803 824 660
4 803 969 824 816
4 824 803 816 660
4 952 912 969 1072
4 969 952 1072 957
4 1072 969 957 1117
4 952 1072 957 1094
4 952 912 1072 1048
4 828 803 912 660
4 912 969 1072 1064
4 969 912 824 1064
4 952 1072 1094 1048
4 803 952 969 816
4 969 952 957 816
4 969 1072 1064 1103
4 969 1072 1103 1117
4 806 952 803 957
4 1064 969 1103 824
4 828 806 803 660
4 923 952 806 902
4 806 923 902 674
4 969 824 816 916
4 824 816 916 696
4 824 816 696 660
4 806 952 957 902
4 828 923 806 674
4 803 816 660 806
4 969 824 916 1103
4 916 969 1103 1117
4 957 1072 1117 1129
4 957 1072 1129 1094
4 1117 957 1129 1075
4 912 824 1064 826
4 816 969 916 977
4 916 816 977 874
4 977 916 874 1156
4 816 969 977 957
4 1072 912 1064 1048
4 969 916 977 1117
4 977 969 1117 957
4 816 916 696 739
4 696 816 739 738
4 1129 957 1094 902
4 957 806 902 911
4 902 957 911 1129
4 957 911 1129 1075
4 1117 977 957 1075
4 1427 1349 1328 1253
4 1496 1458 1482 1414
4 1496 1458 1414 1339
4 1236 1252 1110 1269
4 973 1040 910 1121
4 1894 1866 1917 1930
4 1866 1917 1930 1870
4 1917 1894 1930 1949
4 2163 2132 2121 2210
4 1342 1405 1303 1344
4 1370 1360 1367 1450
4 1370 1360 1450 1434
4 1370 1360 1434 1322
4 1360 1450 1434 1453
4 1360 1450 1453 1367
4 1450 1370 1434 1433
4 1277 1138 1227 1288
4 1635 1668 1700 1660
4 1930 1973 1917 2000
4 2065 2023 2015 2111
4 1133 1181 1101 1004
4 910 915 807 848
4 1624 1667 1654 1645
4 1121 915 910 973
4 2279 2264 2265 2210
4 1348 1208 1236 1099
4 1208 1236 1099 1302
4 2237 2231 2200 2174
4 2231 2200 2174 2175
4 2174 2231 2175 2221
4 2200 2237 2174 2171
4 2237 2174 2171 2197
4 2174 2200 2171 2111
4 2171 2174 2111 2075
4 2174 2171 2197 2149
4 2174 2171 2149 2075
4 2200 2237 2171 2207
4 2237 2171 2207 2203
4 2237 2171 2203 2197
4 2171 2200 2207 2155
4 2203 2237 2197 2259
4 2174 2200 2111 2175
4 2121 2151 2163 2241
4 1380 1303 1405 1306
4 1587 1550 1612 1554
4 1587 1550 1554 1557
4 1554 1587 1557 1607
4 1453 1498 1509 1500
4 1453 1498 1500 1556
4 1498 1509 1500 1556
4 2038 2004 2069 2080
4 2004 2069 2080 2013
4 1420 1389 1271 1253
4 1208 1308 1236 1302
4 1208 1308 1302 1277
4 1308 1302 1277 1413
4 1308 1302 1413 1375
4 1308 1236 1302 1375
4 2094 2105 2029 2050
4 2029 2094 2050 2036
4 2029 2094 2036 2070
4 2094 2036 2070 2144
4 2036 2029 2070 1990
4 2070 2036 1990 2054
4 2094 2050 2036 2054
4 2036 2070 2144 2054
4 2029 2094 2070 2144
4 2036 1990 2054 1999
4 2036 1990 1999 1977
4 2050 2029 2036 1977
4 2094 2105 2050 2173
4 2094 2036 2144 2054
4 2036 2029 1990 1977
4 1252 1136 1110 1144
4 2264 2279 2277 2241
4 1832 1787 1801 1757
4 1384 1352 1254 1397
4 1352 1254 1397 1355
4 1254 1384 1397 1361
4 1397 1254 1361 1262
4 1384 1397 1361 1460
4 1397 1361 1460 1379
4 1460 1397 1379 1475
4 1460 1397 1475 1491
4 1397 1361 1379 1262
4 1379 1397 1262 1355
4 1475 1460 1491 1520
4 1361 1460 1379 1447
4 1379 1460 1475 1505
4 1460 1475 1505 1520
4 1460 1379 1447 1505
4 1384 1397 1460 1461
4 1262 1379 1355 1427
4 1262 1379 1427 1349
4 1379 1427 1349 1447
4 1379 1427 1447 1505
4 1349 1379 1447 1252
4 1379 1427 1505 1475
4 1361 1379 1262 1252
4 1379 1262 1252 1349
4 1361 1379 1252 1447
4 1111 1139 1084 1268
4 2115 2176 2098 2108
4 1099 967 961 852
4 1236 1302 1375 1269
4 1030 1149 856 1031
4 1030 1149 1031 1206
4 1030 1149 1206 1182
4 1031 1030 1206 1021
4 1031 1030 1021 856
4 1149 1031 1206 1249
4 1031 1206 1249 1243
4 1206 1249 1243 1301
4 1243 1206 1301 1235
4 1206 1249 1301 1326
4 1206 1301 1235 1182
4 1206 1031 1021 1243
4 1030 1206 1021 1235
4 679 681 826 644
4 1626 1597 1604 1638
4 1604 1626 1638 1683
4 1604 1626 1683 1654
4 846 779 720 681
4 1191 1187 1321 1257
4 1349 1328 1253 1224
4 1328 1253 1224 1204
4 1224 1328 1204 1349
4 798 909 748 715
4 916 816 874 739
4 1603 1642 1607 1639
4 1668 1671 1700 1747
4 2046 2082 2095 2108
4 2095 2046 2108 2115
4 2046 2082 2108 2030
4 2082 2095 2108 2181
4 2095 2108 2181 2176
4 2108 2046 2030 2062
4 2082 2108 2030 2134
4 1998 2028 2057 1966
4 2167 2117 2207 2155
4 2167 2117 2155 2080
4 1416 1470 1488 1423
4 1974 1929 1915 1989
4 825 685 648 847
4 807 908 883 739
4 2124 2179 2085 2191
4 2124 2179 2191 2175
4 2179 2191 2175 2254
4 1384 1352 1397 1461
4 1183 1271 1128 1319
4 1319 1294 1414 1458
4 1356 1282 1261 1143
4 902 806 674 728
4 806 674 728 691
4 2111 2092 2068 2119
4 2068 2111 2119 2016
4 1778 1747 1739 1805
4 1131 1068 1216 1125
4 1068 1216 1125 1306
4 1188 1144 1062 1254
4 1896 1951 1911 1969
4 1724 1670 1686 1718
4 2237 2231 2174 2197
4 816 696 660 691
4 816 696 691 738
4 1686 1743 1718 1725
4 1743 1718 1725 1776
4 1725 1743 1776 1775
4 1669 1725 1685 1686
4 1491 1565 1578 1528
4 1578 1491 1528 1523
4 1139 1150 1253 1224
4 1139 1150 1224 1204
4 1253 1139 1224 1204
4 1150 1224 1204 1168
4 1150 1224 1168 1349
4 1224 1204 1168 1349
4 1150 1253 1224 1349
4 1809 1766 1761 1768
4 956 1153 1030 942
4 1017 1042 846 989
4 1042 846 989 903
4 989 1042 903 1147
4 1017 1042 989 1260
4 1488 1423 1466 1416
4 1147 1079 1223 1042
4 1216 1187 1131 1125
4 1705 1659 1655 1663
4 2112 2091 2058 2037
4 2058 2112 2037 2068
4 2112 2037 2068 2102
4 2112 2037 2102 2091
4 2037 2068 2102 2019
4 2102 2037 2019 2089
4 2019 2102 2089 2119
4 2102 2089 2119 2162
4 2102 2089 2162 2160
4 2119 2102 2162 2112
4 2102 2089 2160 2091
4 2019 2102 2119 2068
4 2102 2119 2068 2112
4 2162 2102 2160 2112
4 2037 2068 2019 2000
4 2068 2019 2000 2015
4 2019 2000 2015 1949
4 2019 2000 1949 1966
4 2000 1949 1966 1917
4 2102 2037 2089 2091
4 2119 2019 2068 2015
4 2089 2162 2160 2168
4 2089 2119 2162 2124
4 2162 2089 2124 2168
4 2019 2037 2000 1966
4 1887 1896 1911 1850
4 1552 1602 1536 1605
4 1824 1846 1904 1880
4 1125 1167 1306 1303
4 2288 2261 2286 2278
4 1142 1157 1261 1282
4 1157 1261 1282 1143
4 1157 1261 1143 1087
4 1157 1261 1087 990
4 1087 1157 990 1143
4 2222 2195 2156 2153
4 1133 1218 1181 1004
4 1574 1563 1573 1520
4 1563 1573 1520 1491
4 957 952 1094 902
4 1847 1880 1838 1824
4 2075 2023 2065 2111
4 1485 1517 1458 1435
4 1517 1458 1435 1493
4 1435 1517 1493 1485
4 1201 1228 1244 1028
4 2231 2237 2259 2197
4 1352 1339 1232 1355
4 798 677 674 775
4 798 677 775 715
4 2204 2252 2186 2223
4 1449 1339 1352 1485
4 940 1075 911 877
4 1075 911 877 957
4 911 940 877 776
4 940 877 776 801
4 911 940 776 852
4 940 776 852 858
4 940 776 858 801
4 940 1075 877 1044
4 1075 877 1044 1043
4 1044 1075 1043 1185
4 1075 877 1043 977
4 877 1044 1043 1031
4 1075 1043 1185 1117
4 877 940 1044 801
4 1206 1149 1249 1326
4 816 977 874 877
4 1106 909 923 913
4 2016 2023 2015 1949
4 1274 1118 1107 1124
4 1118 1107 1124 986
4 1941 1961 2001 1940
4 1071 982 852 940
4 1711 1699 1736 1690
4 846 845 991 873
4 846 845 873 681
4 2192 2261 2204 2219
4 2244 2265 2264 2210
4 806 828 674 660
4 1062 1139 1084 965
4 1914 1876 1905 1940
4 1019 1165 1222 1156
4 1019 1165 1156 916
4 1450 1434 1453 1509
4 1450 1434 1509 1486
4 1434 1509 1486 1433
4 1486 1434 1433 1450
4 2252 2276 2236 2260
4 867 986 1124 1107
4 2265 2244 2251 2210
4 774 768 644 640
4 768 644 640 660
4 768 644 660 824
4 2062 2117 2167 2032
4 1328 1427 1253 1420
4 1253 1328 1420 1389
4 2081 2117 2155 2207
4 1460 1448 1524 1505
4 1181 1260 1163 1017
4 1163 1181 1017 1101
4 2217 2188 2145 2205
4 1290 1271 1319 1128
4 1611 1669 1629 1638
4 1669 1629 1638 1685
4 1629 1638 1685 1604
4 1629 1638 1604 1576
4 1629 1611 1638 1576
4 1458 1437 1414 1319
4 975 826 873 1101
4 1377 1455 1404 1281
4 1404 1377 1281 1322
4 1377 1281 1322 1177
4 1685 1719 1683 1686
4 775 828 640 674
4 1655 1598 1650 1653
4 1650 1655 1653 1702
4 2115 2154 2064 2126
4 1207 1203 1153 1289
4 1207 1203 1289 1295
4 1203 1289 1295 1326
4 1762 1761 1699 1736
4 1660 1642 1639 1665
4 1222 1019 1156 1107
4 816 874 739 738
4 1520 1505 1563 1475
4 1307 1423 1357 1229
4 1573 1574 1520 1523
4 1520 1573 1523 1491
4 1815 1870 1823 1859
4 1870 1823 1859 1881
4 1870 1823 1881 1893
4 1823 1859 1881 1843
4 1881 1823 1843 1831
4 1859 1881 1843 1897
4 1843 1859 1897 1877
4 1859 1881 1897 1941
4 1823 1859 1843 1795
4 1843 1823 1795 1776
4 1823 1859 1795 1815
4 1881 1843 1897 1886
4 1881 1843 1886 1831
4 1843 1897 1886 1885
4 1897 1881 1886 1938
4 1886 1897 1938 1927
4 1897 1881 1938 1941
4 1881 1886 1938 1893
4 1859 1843 1795 1818
4 1843 1795 1818 1771
4 1859 1843 1818 1877
4 1795 1859 1818 1826
4 1859 1870 1881 1941
4 1897 1886 1885 1927
4 1859 1795 1815 1826
4 1815 1870 1859 1866
4 1795 1823 1815 1763
4 1795 1823 1763 1776
4 1815 1795 1763 1758
4 1795 1763 1758 1733
4 1763 1758 1733 1705
4 1758 1733 1705 1702
4 1733 1763 1705 1718
4 1795 1763 1733 1771
4 1733 1705 1702 1663
4 1795 1763 1771 1776
4 1843 1897 1885 1877
4 1897 1885 1877 1940
4 2197 2174 2149 2142
4 2197 2174 2142 2221
4 2142 2197 2221 2113
4 2142 2197 2113 2149
4 1020 1196 1023 972
4 1023 1020 972 892
4 1020 972 892 1025
4 1023 1020 892 956
4 1020 1196 972 1025
4 1129 1117 1075 1213
4 1929 1941 1915 1870
4 2025 2090 2069 2027
4 1299 1342 1250 1255
4 1342 1250 1255 1214
4 1250 1255 1214 1121
4 1255 1214 1121 1125
4 1255 1214 1125 1342
4 2220 2167 2180 2134
4 1282 1157 1143 1167
4 1282 1157 1167 1171
4 1998 1931 1933 1966
4 1931 1933 1966 1894
4 982 1110 914 864
4 2158 2219 2147 2198
4 2158 2219 2198 2192
4 2219 2198 2192 2261
4 2219 2198 2261 2234
4 2219 2198 2234 2147
4 2261 2219 2234 2260
4 2198 2158 2192 2148
4 2192 2198 2148 2250
4 2198 2158 2148 2147
4 2192 2198 2250 2261
4 2198 2148 2250 2234
4 2198 2148 2234 2147
4 2250 2198 2234 2261
4 1056 1125 848 915
4 2111 2092 2119 2200
4 1794 1826 1844 1869
4 1534 1503 1501 1492
4 1098 1132 1254 1252
4 1230 1248 1092 1231
4 1663 1627 1659 1655
4 1468 1524 1533 1481
4 1533 1468 1481 1487
4 1481 1533 1487 1538
4 1481 1533 1538 1520
4 2111 2174 2175 2142
4 2174 2175 2142 2221
4 852 940 858 1025
4 940 858 1025 1044
4 1193 1113 981 937
4 789 769 631 788
4 1493 1427 1420 1355
4 1048 913 1018 1060
4 1048 913 1060 1106
4 1840 1787 1832 1797
4 1380 1306 1282 1167
4 1306 1282 1167 1171
4 2194 2162 2160 2112
4 2057 2091 2114 2089
4 1004 1162 1218 1181
4 775 884 909 715
4 1733 1739 1692 1702
4 1555 1544 1526 1492
4 806 674 691 660
4 1044 1043 1031 1185
4 973 910 848 915
4 1096 915 1056 1005
4 1096 915 1005 881
4 915 1005 881 848
4 1331 1257 1299 1393
4 1257 1299 1393 1321
4 1331 1257 1393 1321
4 1640 1696 1687 1672
4 1687 1640 1672 1621
4 1640 1672 1621 1638
4 1672 1621 1638 1686
4 1638 1672 1686 1683
4 1672 1621 1686 1687
4 1686 1672 1687 1717
4 1686 1672 1717 1683
4 1672 1717 1683 1696
4 1672 1717 1696 1687
4 1717 1683 1696 1714
4 1640 1696 1672 1683
4 1569 1538 1595 1522
4 1285 1359 1316 1319
4 1610 1560 1595 1604
4 1929 1930 1917 1870
4 1662 1656 1714 1648
4 1193 1086 1240 937
4 1384 1254 1281 1361
4 1409 1360 1453 1350
4 2111 2119 2016 2015
4 2270 2213 2267 2246
4 1509 1500 1556 1548
4 1509 1500 1548 1487
4 2091 2057 2028 2037
4 2091 2057 2037 2089
4 1455 1460 1523 1491
4 2134 2167 2207 2220
4 1166 1235 1021 1243
4 1818 1859 1877 1826
4 1877 1818 1826 1813
4 1877 1818 1813 1849
4 1877 1818 1849 1843
4 1818 1849 1843 1811
4 1818 1849 1811 1813
4 1849 1843 1811 1806
4 1811 1849 1806 1825
4 1806 1811 1825 1771
4 1806 1811 1771 1843
4 1811 1849 1825 1813
4 1849 1806 1825 1867
4 1811 1825 1771 1813
4 1811 1771 1843 1818
4 1811 1771 1818 1813
4 1849 1825 1813 1885
4 1849 1825 1885 1867
4 1825 1806 1771 1767
4 1806 1771 1767 1829
4 1825 1806 1767 1807
4 1806 1767 1807 1829
4 1807 1806 1829 1867
4 1825 1806 1807 1867
4 1806 1771 1829 1843
4 1829 1806 1843 1867
4 1849 1843 1806 1867
4 1885 1849 1867 1843
4 1885 1849 1843 1877
4 1885 1849 1877 1813
4 2065 2015 2063 2093
4 2015 2063 2093 2053
4 2093 2015 2053 2119
4 2053 2093 2119 2089
4 2053 2093 2089 2063
4 2089 2053 2063 2042
4 2089 2053 2042 2045
4 2089 2053 2045 2043
4 2089 2053 2043 2019
4 2089 2053 2019 2119
4 2053 2043 2019 2045
4 2053 2063 2042 2015
4 2043 2089 2019 2037
4 2019 2043 2037 2002
4 2043 2037 2002 2057
4 2019 2043 2002 1986
4 2037 2019 2002 1966
4 2002 2037 1966 2057
4 2043 2037 2057 2089
4 2019 2002 1966 1949
4 2002 1966 1949 1986
4 2002 1966 1986 2057
4 2043 2002 1986 2057
4 2019 2002 1949 1986
4 2045 2089 2043 2057
4 2053 2042 2045 1986
4 2053 2042 1986 2015
4 2019 2043 1986 2045
4 2093 2015 2119 2111
4 2119 2093 2111 2175
4 2119 2093 2175 2124
4 2111 2119 2175 2200
4 2093 2119 2089 2124
4 2065 2015 2093 2111
4 2043 2045 2057 1986
4 2045 2053 1986 2019
4 2053 1986 2019 2015
4 2019 2053 2015 2119
4 2063 2065 2093 2142
4 2093 2111 2175 2142
4 2175 2093 2142 2191
4 2142 2175 2191 2221
4 2191 2142 2221 2104
4 2191 2142 2104 2124
4 2065 2093 2142 2111
4 660 816 691 806
4 2207 2220 2244 2172
4 1794 1788 1805 1736
4 1626 1638 1683 1640
4 1142 1157 1282 1171
4 1397 1379 1475 1435
4 2038 1973 1972 2016
4 2037 2068 2000 2058
4 1110 1136 914 1058
4 1110 1136 1058 1144
4 914 1110 1058 959
4 1058 914 959 1132
4 959 1058 1132 1098
4 959 1058 1098 1144
4 959 1058 1144 1110
4 1058 1098 1144 1132
4 1098 959 1144 1062
4 1136 914 1058 1132
4 1058 1136 1132 1144
4 2015 2019 1949 1986
4 2032 2062 1974 1989
4 2062 1974 1989 2038
4 1379 1355 1427 1435
4 1580 1550 1519 1571
4 1252 1236 1375 1269
4 1500 1445 1453 1516
4 1453 1500 1516 1556
4 1500 1516 1556 1445
4 2134 2171 2081 2149
4 1297 1236 1348 1375
4 1718 1659 1705 1698
4 1718 1659 1698 1670
4 1659 1705 1698 1663
4 1705 1718 1698 1733
4 1698 1705 1733 1663
4 1165 1218 1133 1005
4 1471 1382 1458 1493
4 1022 1106 1060 884
4 2242 2185 2260 2201
4 912 824 826 768
4 912 824 768 660
4 1914 1857 1875 1934
4 1914 1857 1934 1905
4 1934 1914 1905 1965
4 1934 1914 1965 1993
4 1914 1905 1965 1940
4 2089 2093 2124 2063
4 2093 2124 2063 2142
4 1441 1421 1319 1316
4 1133 1064 1103 975
4 1133 1064 975 1101
4 1103 1133 975 1165
4 1064 1103 975 824
4 975 1133 1101 1004
4 2264 2203 2210 2241
4 1875 1824 1860 1904
4 991 1135 1101 1055
4 1747 1727 1692 1671
4 1727 1692 1671 1677
4 1299 1296 1274 1416
4 1273 1208 1102 1092
4 1509 1486 1433 1522
4 1486 1433 1522 1526
4 1522 1486 1526 1509
4 855 978 804 867
4 2219 2234 2260 2201
4 2219 2234 2201 2147
4 1450 1469 1370 1526
4 1203 1197 1149 1326
4 2108 2046 2062 2098
4 2111 2174 2142 2075
4 881 807 848 750
4 881 807 750 739
4 1113 1240 1127 937
4 2188 2136 2101 2150
4 681 723 873 779
4 723 873 779 811
4 1707 1706 1714 1648
4 1816 1815 1835 1758
4 1816 1815 1758 1783
4 1136 967 914 1132
4 1144 1150 1110 1252
4 1397 1254 1262 1355
4 2261 2219 2260 2252
4 2197 2174 2221 2231
4 1509 1450 1486 1526
4 1389 1238 1271 1268
4 881 1005 750 848
4 1844 1826 1813 1877
4 1844 1826 1877 1905
4 1844 1826 1905 1869
4 1339 1294 1232 1290
4 1339 1294 1290 1458
4 1232 1339 1290 1355
4 1294 1232 1290 1128
4 1290 1294 1128 1319
4 1290 1294 1319 1458
4 2075 2030 2023 2081
4 1447 1375 1349 1252
4 1505 1475 1536 1563
4 1965 1961 1914 1940
4 1706 1757 1714 1752
4 1494 1541 1523 1442
4 2260 2278 2263 2201
4 2136 2213 2140 2085
4 1690 1665 1702 1729
4 1974 2032 1989 1956
4 2219 2158 2204 2192
4 1423 1477 1372 1470
4 1041 920 1101 1055
4 877 776 801 738
4 877 776 738 728
4 801 877 738 786
4 1393 1331 1321 1381
4 991 1135 1055 934
4 1638 1672 1683 1640
4 1174 1257 1191 1321
4 1356 1260 1143 1261
4 1214 1056 1218 1005
4 1150 976 1110 1050
4 1110 1150 1050 1168
4 1150 1050 1168 979
4 1050 1168 979 1094
4 1731 1735 1677 1724
4 1731 1735 1724 1771
4 1735 1724 1771 1698
4 1735 1724 1698 1670
4 1724 1698 1670 1718
4 2194 2146 2200 2119
4 2194 2146 2119 2112
4 1826 1783 1813 1818
4 1826 1783 1818 1795
4 1826 1783 1795 1815
4 1783 1813 1818 1771
4 1783 1818 1795 1771
4 952 803 957 816
4 1350 1327 1446 1452
4 1698 1659 1663 1670
4 1663 1698 1670 1677
4 691 816 738 840
4 691 816 840 806
4 738 691 840 728
4 691 840 728 806
4 1743 1718 1776 1771
4 1700 1699 1668 1722
4 1700 1699 1722 1762
4 1668 1700 1722 1747
4 1700 1722 1747 1762
4 1722 1747 1762 1736
4 1722 1747 1736 1692
4 1762 1722 1736 1699
4 1722 1736 1699 1690
4 1722 1736 1690 1692
4 1722 1747 1692 1668
4 1692 1722 1668 1699
4 892 1020 1025 1065
4 892 1020 1065 1149
4 1020 1065 1149 1197
4 1020 1065 1197 1025
4 1065 1149 1197 1249
4 1065 1197 1025 1044
4 1065 1197 1044 1249
4 1025 1065 1044 892
4 1065 892 1149 1031
4 1149 1065 1031 1249
4 1500 1556 1548 1487
4 1927 1885 1867 1886
4 1683 1706 1714 1752
4 877 911 776 728
4 856 801 786 1031
4 739 874 786 738
4 1575 1572 1522 1526
4 1690 1665 1729 1711
4 1144 1098 1062 1254
4 864 1050 982 1110
4 1050 982 1110 1190
4 2150 2205 2188 2213
4 1911 1927 1867 1886
4 1913 1903 1923 1971
4 1208 1273 1227 1092
4 1358 1341 1277 1413
4 2207 2171 2155 2081
4 1232 1098 1254 1062
4 1301 1206 1326 1258
4 1301 1206 1258 1182
4 1124 1228 1028 1053
4 1124 1228 1053 978
4 1053 1124 978 867
4 1028 1124 1053 867
4 1228 1028 1053 1272
4 1552 1598 1605 1547
4 1644 1670 1659 1718
4 847 708 648 884
4 1173 1160 953 1078
4 920 1064 1101 826
4 903 1086 989 1147
4 1993 1965 2027 1976
4 934 790 906 991
4 1756 1807 1767 1801
4 2175 2231 2254 2221
4 1323 1230 1227 1273
4 679 824 696 660
4 1933 1931 1860 1894
4 1133 975 1165 1005
4 1133 975 1005 1004
4 1458 1517 1499 1471
4 1106 1204 1168 979
4 1168 1106 979 1094
4 2030 2023 2081 1972
4 1344 1306 1405 1303
4 1999 1936 1956 1977
4 1999 1936 1977 1990
4 1936 1977 1990 1923
4 1936 1956 1977 1893
4 1523 1573 1578 1491
4 1701 1752 1744 1738
4 1701 1752 1738 1706
4 1738 1701 1706 1694
4 1706 1738 1694 1716
4 1738 1701 1694 1674
4 1752 1738 1706 1757
4 1701 1694 1674 1654
4 1694 1674 1654 1667
4 1701 1694 1654 1706
4 1694 1654 1706 1716
4 1706 1738 1716 1757
4 1654 1694 1667 1716
4 1738 1694 1716 1712
4 1738 1694 1712 1674
4 1694 1712 1674 1667
4 1694 1716 1712 1667
4 1744 1701 1738 1732
4 1701 1738 1732 1674
4 1701 1752 1706 1683
4 1778 1783 1813 1844
4 1258 1203 1149 1326
4 877 1043 977 874
4 1878 1812 1831 1903
4 1878 1812 1903 1855
4 1903 1878 1855 1923
4 1871 1914 1875 1933
4 2050 2029 1977 2035
4 2061 2080 2013 2032
4 1341 1413 1308 1277
4 2027 1993 1976 2058
4 1174 1118 1299 1274
4 1217 1261 1240 1087
4 1217 1261 1087 1260
4 1240 1217 1087 989
4 1217 1087 989 1260
4 1781 1736 1794 1772
4 1719 1717 1686 1725
4 1857 1826 1869 1905
4 1869 1857 1905 1934
4 1556 1553 1516 1453
4 1992 2013 1952 1938
4 1952 1992 1938 1927
4 957 806 911 840
4 911 957 840 877
4 840 911 877 728
4 840 911 728 806
4 957 806 840 816
4 957 840 877 977
4 840 957 816 977
4 1086 937 989 1240
4 2248 2241 2279 2210
4 1043 1031 1185 1016
4 1185 1043 1016 1156
4 1043 1031 1016 786
4 1185 1043 1156 1117
4 1043 1016 1156 977
4 1043 1016 977 874
4 1043 1016 874 786
4 1016 977 874 1156
4 1016 1185 1156 1107
4 1458 1485 1435 1339
4 2115 2176 2108 2095
4 1843 1795 1771 1776
4 1968 1974 1915 1956
4 1471 1499 1542 1517
4 1025 1071 1227 961
4 1025 1071 961 852
4 1030 956 942 856
4 1434 1509 1487 1409
4 1434 1509 1409 1453
4 1905 1877 1940 1876
4 1589 1556 1616 1569
4 1208 1227 1277 1071
4 1208 1227 1071 961
4 1249 1243 1185 1031
4 1147 1223 1225 989
4 959 976 914 1110
4 848 1056 915 1005
4 2025 2090 2027 2058
4 1929 1941 1870 1917
4 1908 1904 1933 1860
4 1767 1743 1775 1829
4 644 679 660 824
4 1805 1778 1844 1794
4 1941 1968 1915 1881
4 1166 1107 1274 1243
4 1092 1102 961 1208
4 2185 2201 2219 2260
4 1772 1758 1702 1754
4 1772 1758 1754 1794
4 1754 1772 1794 1736
4 1794 1754 1736 1739
4 1794 1754 1739 1783
4 1754 1739 1783 1758
4 1754 1736 1739 1690
4 1794 1754 1783 1758
4 1758 1702 1754 1739
4 1754 1736 1690 1772
4 1702 1754 1739 1690
4 1702 1754 1690 1772
4 1917 1976 1914 1933
4 2105 2127 2061 2052
4 2061 2105 2052 2035
4 2105 2127 2052 2098
4 2127 2052 2098 2032
4 2127 2061 2052 2032
4 2061 2052 2032 1968
4 2037 2000 1966 2058
4 1262 1361 1252 1254
4 965 1111 1084 1033
4 1111 1084 1033 1268
4 1254 1132 1281 1361
4 1092 961 972 1227
4 1253 1188 1062 1084
4 1188 1062 1084 1128
4 1933 1904 1964 1875
4 1933 1904 1875 1860
4 788 906 790 991
4 2176 2172 2181 2244
4 1778 1783 1844 1794
4 1272 1192 1228 1028
4 1805 1844 1869 1794
4 1534 1501 1553 1492
4 1934 1914 1993 1933
4 2158 2148 2147 2095
4 2148 2147 2095 2201
4 2028 1998 1964 1933
4 2032 2062 1989 2031
4 2032 2062 2031 2098
4 2062 1989 2031 2046
4 2062 2031 2098 2046
4 942 1030 856 855
4 1936 1878 1893 1977
4 1288 1249 1213 1044
4 1208 1099 1102 961
4 1731 1735 1771 1813
4 873 826 991 1101
4 2270 2254 2227 2191
4 1348 1426 1297 1375
4 858 961 852 1025
4 858 961 1025 972
4 1025 858 972 892
4 961 1025 972 1227
4 1025 858 892 1044
4 2126 2169 2173 2225
4 1150 1144 1253 1349
4 2235 2267 2213 2205
4 1736 1768 1690 1772
4 855 1021 1030 856
4 2094 2169 2105 2173
4 1355 1427 1435 1493
4 1435 1355 1493 1382
4 1435 1355 1382 1458
4 1382 1435 1458 1493
4 1427 1435 1493 1475
4 1435 1493 1475 1485
4 1475 1435 1485 1352
4 1992 2061 2013 1968
4 1460 1455 1384 1461
4 1738 1774 1716 1757
4 856 892 801 1031
4 1576 1523 1578 1528
4 806 902 911 728
4 1099 982 914 852
4 1589 1544 1556 1569
4 1589 1544 1569 1572
4 1544 1569 1572 1522
4 1589 1544 1572 1582
4 1544 1572 1582 1526
4 1544 1572 1526 1522
4 2119 2068 2016 2015
4 733 674 728 902
4 1973 1972 2016 1930
4 1976 1917 2000 1966
4 1911 1969 1927 1912
4 1927 1911 1912 1886
4 1912 1927 1886 1938
4 1969 1927 1912 1992
4 1911 1969 1912 1903
4 1004 1056 811 1005
4 2062 1989 2046 2030
4 2062 1989 2030 1972
4 2061 2080 2032 2127
4 1468 1426 1375 1297
4 1930 1973 2000 2016
4 1719 1775 1717 1743
4 1717 1719 1743 1725
4 1719 1743 1725 1775
4 1327 1350 1323 1452
4 1350 1248 1231 1367
4 1692 1668 1690 1699
4 1077 911 1129 902
4 1654 1701 1706 1683
4 2025 1961 2027 2069
4 2035 1992 1969 1967
4 2035 1992 1967 2061
4 1992 1969 1967 1912
4 1969 1967 1912 1977
4 1969 2035 1967 1977
4 1166 1315 1243 1274
4 884 913 909 1106
4 856 786 855 1021
4 1733 1783 1758 1795
4 1733 1783 1795 1771
4 1349 1375 1269 1252
4 1271 1188 1084 1128
4 1138 1025 1227 1197
4 2064 2046 2115 2051
4 2115 2064 2051 2126
4 2064 2046 2051 1999
4 2051 2064 1999 2067
4 1999 2051 2067 2050
4 2051 2067 2050 2126
4 2051 2064 2067 2126
4 2067 1999 2050 2054
4 1999 2051 2050 1956
4 2067 2050 2126 2054
4 2126 2067 2054 2064
4 2067 2054 2064 1999
4 1999 2051 1956 2046
4 1475 1397 1435 1352
4 1903 1878 1923 1977
4 1911 1867 1850 1837
4 1176 1071 1302 1200
4 774 775 640 648
4 1733 1698 1663 1735
4 1733 1698 1735 1771
4 2200 2171 2111 2081
4 2171 2111 2081 2075
4 1573 1578 1491 1563
4 1379 1427 1475 1435
4 1460 1520 1523 1491
4 816 840 977 877
4 929 788 906 774
4 1040 1187 1121 973
4 1021 1206 1243 1235
4 1541 1494 1538 1442
4 1360 1231 1367 1350
4 1936 1878 1977 1923
4 1075 1043 1117 977
4 1043 1117 977 1156
4 1117 977 1156 916
4 2182 2173 2225 2126
4 2080 2032 2127 2167
4 1253 1139 1204 1268
4 1748 1767 1825 1731
4 1203 1153 956 1023
4 640 674 677 775
4 677 640 775 648
4 775 677 648 715
4 1771 1825 1767 1731
4 1914 1965 1993 1976
4 1339 1290 1355 1458
4 1380 1303 1306 1167
4 1724 1771 1698 1718
4 1885 1897 1927 1952
4 1885 1897 1952 1940
4 1897 1952 1940 1944
4 1897 1952 1944 1938
4 1952 1944 1938 2013
4 1944 1897 1938 1941
4 1938 1944 1941 1968
4 1938 1944 1968 2013
4 1944 1941 1968 2013
4 1897 1952 1938 1927
4 1952 1940 1944 2001
4 1941 1938 1968 1881
4 1968 1938 2013 1992
4 1940 1897 1944 1890
4 1897 1944 1890 1941
4 1944 1890 1941 1940
4 1940 1897 1890 1877
4 1952 1944 2013 2001
4 1944 2013 2001 1941
4 2001 1944 1941 1940
4 1938 1968 1881 1893
4 1331 1321 1381 1184
4 1869 1857 1934 1875
4 1453 1501 1492 1553
4 1968 1938 1992 1967
4 1206 1030 1182 1235
4 1150 1050 979 976
4 1690 1722 1692 1699
4 1496 1519 1449 1414
4 1758 1733 1702 1739
4 2102 2160 2112 2091
4 1886 1912 1938 1893
4 1028 1148 1201 988
4 1989 2031 2046 2051
4 2031 2046 2051 2115
4 2051 2031 2115 2098
4 2051 2031 2098 2050
4 2051 2031 2050 1956
4 1989 2031 2051 1956
4 2115 2051 2098 2050
4 2031 2115 2098 2046
4 2031 2098 2050 2052
4 2050 2031 2052 1985
4 2052 2050 1985 2011
4 2052 2050 2011 2035
4 2031 2098 2052 2032
4 2098 2050 2052 2105
4 2031 2052 1985 2032
4 1985 2052 2011 1968
4 2050 2052 2105 2035
4 2050 1985 2011 1977
4 1985 2011 1977 1967
4 2011 1977 1967 2035
4 1967 2011 2035 2061
4 2011 2035 2061 2052
4 1985 2011 1967 1968
4 2061 2011 2052 1968
4 2050 2031 1985 1956
4 2031 1985 1956 2032
4 2052 1985 2032 1968
4 1977 1985 1967 1893
4 2011 2050 1977 2035
4 1985 2050 1956 1999
4 1956 1985 1999 1977
4 1985 2050 1999 1977
4 1956 1985 1977 1893
4 1967 2011 2061 1968
4 1956 1985 1893 1968
4 1956 1985 1968 2032
4 828 768 640 660
4 1825 1771 1813 1731
4 826 920 991 1101
4 920 991 1101 1055
4 1261 1240 1087 1127
4 1369 1386 1452 1323
4 1004 1056 1005 1218
4 1442 1481 1538 1523
4 2264 2279 2241 2210
4 788 681 644 826
4 788 681 826 991
4 1020 1203 1149 956
4 1050 982 1190 1077
4 1190 1050 1077 1129
4 1050 982 1077 902
4 1064 975 1101 826
4 1098 1144 1132 1252
4 2279 2265 2248 2210
4 2244 2210 2172 2181
4 2210 2172 2181 2132
4 2181 2210 2132 2245
4 2181 2210 2245 2251
4 1941 1915 1870 1881
4 1915 1870 1881 1893
4 1881 1915 1893 1968
4 1071 961 852 1099
4 911 776 728 802
4 733 728 802 902
4 1893 1878 1831 1886
4 1831 1878 1903 1886
4 1427 1420 1355 1253
4 2046 2108 2115 2098
4 858 801 892 1044
4 1139 1150 1204 979
4 1491 1475 1461 1397
4 1280 1356 1143 1282
4 1213 1249 1185 1044
4 2175 2093 2191 2124
4 2091 2058 2037 2028
4 1544 1556 1569 1509
4 1569 1544 1509 1522
4 1435 1355 1458 1339
4 1280 1162 1380 1282
4 1875 1824 1904 1847
4 1150 1110 1252 1269
4 1150 1110 1269 1168
4 1269 1150 1168 1349
4 1536 1547 1552 1605
4 1204 965 1139 979
4 892 1020 1149 956
4 1938 1992 1967 1912
4 2234 2250 2261 2286
4 1602 1627 1563 1578
4 1692 1727 1735 1677
4 1165 1218 1005 1214
4 803 806 957 816
4 1232 1188 1128 1062
4 873 723 815 811
4 1956 1893 1915 1968
4 2054 2036 1999 2050
4 2036 1999 2050 1977
4 640 660 674 828
4 1041 920 1055 906
4 920 1055 906 991
4 788 790 681 991
4 654 788 644 631
4 1021 1031 856 786
4 1144 1150 1252 1349
4 2075 2030 2081 2149
4 1307 1229 1184 1313
4 1184 1307 1313 1381
4 1307 1313 1381 1423
4 1313 1381 1423 1321
4 1423 1313 1321 1229
4 1313 1381 1321 1184
4 1307 1313 1423 1229
4 1229 1184 1313 1321
4 1302 1176 1200 1190
4 877 840 728 738
4 877 840 738 816
4 906 789 1018 774
4 906 789 774 788
4 1792 1789 1812 1744
4 1917 1930 2000 1949
4 1930 2000 1949 2016
4 1460 1397 1491 1461
4 1732 1701 1674 1744
4 2038 2117 2032 2080
4 1201 1148 1229 988
4 2275 2278 2286 2234
4 1139 1253 1084 1268
4 2248 2241 2210 2163
4 1204 1168 979 1150
4 1516 1453 1452 1445
4 1915 1974 1989 1956
4 1547 1550 1612 1571
4 1702 1690 1729 1772
4 1784 1749 1716 1715
4 2092 2146 2119 2200
4 2144 2070 2130 2054
4 2116 2154 2054 2064
4 1560 1541 1538 1604
4 1541 1538 1604 1574
4 1600 1641 1674 1654
4 1156 1165 1103 916
4 1585 1538 1574 1604
4 1585 1538 1604 1595
4 1433 1486 1450 1370
4 1433 1486 1370 1526
4 1486 1450 1370 1526
4 877 738 786 874
4 1352 1397 1461 1475
4 1701 1685 1683 1641
4 1701 1685 1641 1674
4 2182 2154 2126 2225
4 2000 2015 1949 2016
4 1654 1609 1645 1674
4 1654 1609 1674 1600
4 1729 1768 1772 1690
4 1776 1718 1763 1771
4 965 976 979 748
4 1783 1735 1813 1771
4 1360 1453 1350 1367
4 915 1214 1056 1121
4 1629 1604 1574 1576
4 1466 1393 1416 1321
4 1393 1416 1321 1299
4 1466 1393 1321 1381
4 1692 1690 1702 1739
4 1692 1690 1739 1736
4 2134 2062 2167 2098
4 1092 1230 1231 1273
4 1876 1914 1917 1961
4 789 774 936 1018
4 2081 2111 2023 2075
4 1272 1160 1212 1078
4 1538 1533 1574 1520
4 2179 2150 2085 2213
4 1149 1258 1326 1206
4 1149 1258 1206 1182
4 1252 1297 1132 1361
4 1252 1297 1361 1375
4 1536 1491 1578 1563
4 1065 1044 892 1031
4 1065 1044 1031 1249
4 2171 2149 2075 2081
4 1261 1087 990 1127
4 1087 990 1127 989
4 1087 990 989 960
4 989 1087 960 1143
4 1087 960 1143 990
4 1743 1775 1829 1776
4 1166 1315 1274 1228
4 2092 2038 2069 2080
4 911 1077 982 902
4 864 902 802 982
4 802 864 982 914
4 982 802 914 852
4 982 802 852 911
4 1982 2024 1945 1951
4 1945 1982 1951 1903
4 1253 1271 1084 1268
4 982 852 940 911
4 1019 874 1156 1016
4 1019 874 1016 1107
4 1156 1019 1016 1107
4 1466 1423 1381 1321
4 2245 2250 2177 2148
4 2201 2232 2251 2278
4 1967 1912 1977 1893
4 902 911 728 802
4 2227 2213 2270 2191
4 2227 2213 2191 2140
4 1847 1901 1904 1875
4 1379 1397 1355 1435
4 2167 2117 2080 2032
4 1674 1701 1654 1641
4 864 979 976 748
4 1604 1641 1595 1654
4 1595 1604 1654 1610
4 1875 1914 1934 1933
4 1250 1255 1121 1299
4 1481 1438 1538 1487
4 991 1135 934 845
4 1718 1698 1733 1771
4 1092 1137 1196 972
4 1137 1196 972 1023
4 1834 1794 1805 1869
4 1386 1288 1197 1326
4 1288 1197 1326 1249
4 1288 1197 1249 1044
4 1738 1732 1789 1744
4 2081 2038 2030 1972
4 1191 1174 988 1040
4 988 1191 1040 1229
4 1876 1826 1905 1877
4 2134 2081 2030 2149
4 1369 1327 1196 1323
4 1438 1509 1538 1487
4 644 768 826 824
4 1369 1386 1323 1196
4 1125 973 848 1121
4 2105 2097 2029 2035
4 2097 2029 2035 2024
4 2278 2260 2288 2261
4 2180 2098 2176 2134
4 1261 1143 1087 1260
4 1143 1087 1260 989
4 1547 1554 1546 1607
4 1523 1455 1491 1461
4 815 750 696 739
4 1103 1117 1156 916
4 2098 2180 2167 2134
4 2024 1982 2035 1969
4 2024 1982 1969 1951
4 1843 1823 1776 1831
4 1255 1344 1342 1303
4 1342 1255 1303 1125
4 1989 2031 1956 2032
4 1993 1964 1934 1933
4 1993 1964 1933 2028
4 1776 1743 1771 1829
4 2203 2210 2241 2121
4 1792 1789 1744 1738
4 1031 1021 1243 1185
4 1894 1871 1875 1933
4 1458 1517 1471 1493
4 1044 877 801 1031
4 2205 2246 2267 2213
4 1792 1775 1744 1812
4 1523 1520 1481 1538
4 856 956 892 1149
4 1635 1668 1660 1639
4 1797 1757 1787 1832
4 1894 1928 1949 1966
4 1928 1949 1966 1986
4 1949 1894 1966 1917
4 1850 1911 1837 1896
4 774 775 648 884
4 1149 856 1031 892
4 1326 1318 1203 1289
4 1318 1203 1289 1153
4 1801 1752 1756 1757
4 1815 1876 1866 1859
4 1815 1876 1859 1826
4 1876 1859 1826 1877
4 1110 1050 1190 1168
4 1050 1190 1168 1129
4 1162 1143 1167 1282
4 1167 1162 1282 1380
4 1762 1747 1805 1736
4 2275 2286 2250 2234
4 1328 1253 1204 1268
4 1993 2058 2028 1966
4 1162 1303 1380 1167
4 2025 1976 2068 2058
4 1627 1611 1563 1578
4 2234 2201 2147 2148
4 1961 1941 1917 1890
4 1961 1941 1890 1940
4 1989 2062 2038 1972
4 1262 1252 1349 1144
4 1262 1252 1144 1254
4 1056 848 750 1005
4 1603 1587 1612 1607
4 1903 1896 1837 1911
4 1213 1075 1185 1117
4 2105 2029 2050 2035
4 1450 1509 1544 1526
4 2226 2197 2121 2151
4 1271 1389 1268 1253
4 2171 2200 2155 2081
4 2219 2223 2252 2204
4 2032 1968 2013 2061
4 1269 1150 1349 1252
4 1222 1274 1107 1243
4 774 708 936 884
4 1541 1560 1576 1604
4 1576 1541 1604 1574
4 1621 1640 1638 1597
4 1834 1830 1901 1869
4 1834 1830 1869 1805
4 1452 1369 1323 1327
4 1775 1801 1756 1767
4 1071 961 1099 1208
4 1099 1071 1208 1302
4 2149 2075 2113 2142
4 973 1125 1131 1187
4 1124 1201 988 1028
4 2057 1983 1966 1986
4 1538 1604 1595 1560
4 2275 2234 2251 2278
4 1876 1866 1859 1890
4 1859 1876 1890 1877
4 1876 1866 1890 1917
4 1890 1876 1917 1961
4 1876 1890 1877 1940
4 1876 1890 1940 1961
4 1890 1859 1877 1897
4 1890 1859 1897 1941
4 1890 1859 1941 1870
4 1890 1859 1870 1866
4 1941 1890 1870 1917
4 2155 2092 2069 2080
4 1597 1626 1640 1638
4 2121 2149 2113 2197
4 1232 1188 1062 1254
4 631 644 640 774
4 640 631 774 648
4 940 858 1044 801
4 1223 1147 1042 989
4 1042 1223 989 1260
4 1912 1911 1903 1837
4 2149 2210 2121 2132
4 1875 1933 1860 1894
4 873 1004 811 815
4 1255 1303 1125 1306
4 2176 2201 2251 2181
4 2176 2201 2181 2095
4 1692 1663 1677 1735
4 1816 1794 1783 1758
4 2248 2245 2177 2132
4 1641 1604 1685 1683
4 2046 1989 2051 1956
4 1328 1253 1268 1389
4 1021 1016 1243 1185
4 1016 1243 1185 1107
4 1154 1022 1060 884
4 1031 1185 1016 1021
4 1016 1031 1021 786
4 1911 1912 1886 1837
4 1607 1603 1639 1612
4 1639 1607 1612 1598
4 1881 1886 1893 1831
4 1228 1373 1315 1274
4 845 991 873 681
4 2173 2098 2105 2050
4 1098 1144 1252 1254
4 2179 2191 2254 2246
4 2179 2191 2246 2213
4 2132 2181 2082 2172
4 1815 1795 1758 1783
4 2227 2221 2143 2104
4 2148 2181 2245 2234
4 2181 2245 2234 2251
4 2148 2181 2234 2201
4 2181 2234 2201 2251
4 1050 864 976 1110
4 2104 2142 2063 2124
4 1834 1901 1875 1869
4 2270 2246 2254 2191
4 631 644 774 788
4 1739 1778 1805 1794
4 1491 1460 1461 1455
4 2221 2233 2143 2113
4 1602 1536 1605 1578
4 1397 1355 1435 1352
4 1771 1829 1843 1776
4 1829 1843 1776 1831
4 1776 1829 1831 1775
4 1829 1843 1831 1886
4 1829 1843 1886 1867
4 916 815 696 739
4 1044 1031 1249 1185
4 1752 1775 1756 1717
4 2115 2098 2126 2050
4 1968 1938 1967 1893
4 990 937 1127 989
4 2058 2037 2028 1966
4 852 802 776 911
4 1717 1683 1714 1752
4 1739 1747 1736 1805
4 1184 1266 1381 1331
4 2226 2241 2151 2121
4 1541 1523 1442 1538
4 1541 1523 1538 1574
4 2000 1976 1966 2058
4 1654 1706 1716 1648
4 1638 1604 1576 1597
4 1733 1763 1718 1771
4 2062 2134 2030 2108
4 2062 2134 2108 2098
4 1598 1546 1607 1547
4 2154 2201 2242 2225
4 1121 1174 1191 1040
4 1230 1350 1231 1273
4 801 877 786 1031
4 1756 1717 1714 1752
4 1604 1641 1654 1683
4 1218 1133 1005 1004
4 2093 2142 2191 2124
4 1964 1933 1875 1934
4 2140 2104 2085 2191
4 1698 1670 1677 1735
4 1886 1843 1885 1867
4 1302 1277 1200 1071
4 2065 2142 2075 2111
4 2038 2062 2030 1972
4 1197 1288 1227 1138
4 1992 1938 1927 1912
4 1621 1576 1597 1638
4 1621 1576 1638 1611
4 2115 2051 2050 2126
4 1448 1468 1375 1297
4 1667 1648 1654 1716
4 1976 2000 2068 2058
4 2149 2082 2030 2134
4 1196 1092 972 1227
4 2154 2126 2054 2064
4 1835 1860 1894 1875
4 2098 2173 2126 2050
4 1526 1544 1522 1509
4 1050 1168 1094 1129
4 2028 1998 1933 1966
4 1667 1654 1645 1674
4 1638 1604 1683 1685
4 1903 1912 1837 1886
4 1903 1912 1886 1893
4 1560 1522 1595 1538
4 1087 1240 989 1127
4 2174 2149 2142 2075
4 1416 1466 1321 1423
4 1903 1896 1911 1969
4 1277 1208 1071 1302
4 1698 1663 1735 1677
4 775 648 884 715
4 1574 1520 1523 1538
4 1829 1837 1867 1886
4 1554 1547 1612 1607
4 1982 1971 1923 1903
4 1869 1934 1901 1875
4 1982 2035 1969 1977
4 811 1056 750 1005
4 1714 1756 1752 1757
4 1132 1252 1361 1254
4 1993 1976 2058 1966
4 1094 1129 902 1050
4 1686 1638 1683 1685
4 1075 877 977 957
4 1951 1896 1903 1969
4 1435 1355 1339 1352
4 1077 1050 902 1129
4 2251 2176 2181 2244
4 2140 2104 2191 2227
4 1701 1654 1641 1683
4 1634 1605 1612 1571
4 1612 1587 1554 1607
4 2037 1966 2057 2028
4 1866 1917 1870 1890
4 1344 1255 1306 1303
4 1344 1331 1266 1131
4 1560 1597 1576 1604
4 1725 1744 1775 1812
4 1992 1967 2061 1968
4 1196 972 1025 1227
4 2263 2232 2225 2201
4 2263 2232 2201 2278
4 1831 1829 1886 1903
4 2163 2132 2210 2248
4 1197 1149 1326 1249
4 2278 2260 2261 2234
4 2094 2126 2173 2050
4 2094 2126 2050 2054
4 848 973 915 1121
4 915 848 1121 1125
4 1967 1938 1912 1893
4 1056 1125 915 1121
4 988 867 1124 1028
4 1598 1605 1547 1612
4 1492 1450 1544 1526
4 1196 1197 1227 1025
4 2113 2151 2197 2233
4 2278 2260 2234 2201
4 2127 2098 2167 2032
4 1125 973 1121 1187
4 1969 1912 1903 1977
4 1461 1485 1352 1475
4 1602 1563 1536 1578
4 1735 1733 1692 1663
4 1733 1692 1663 1702
4 1736 1794 1739 1805
4 815 1005 1004 811
4 801 1044 1031 892
4 738 877 816 874
4 1229 1372 1244 1201
4 1837 1829 1812 1831
4 1829 1812 1831 1775
4 1837 1829 1831 1903
4 1427 1349 1253 1262
4 815 975 873 1004
4 975 873 1004 1101
4 1901 1934 1964 1875
4 2085 2150 2136 2213
4 1491 1475 1520 1563
4 1230 1092 1227 1273
4 2179 2191 2213 2085
4 1901 1904 1875 1964
4 1893 1881 1831 1823
4 1197 1288 1138 1044
4 1903 1837 1812 1831
4 1201 1321 1229 1372
4 2032 2062 2098 2167
4 1600 1641 1654 1595
4 1043 877 1031 786
4 1903 1878 1977 1893
4 1903 1878 1893 1886
4 2124 2085 2104 2191
4 2244 2251 2210 2181
4 976 914 1110 864
4 1976 1917 1966 1933
4 1208 1227 961 1092
4 1677 1670 1724 1735
4 1911 1867 1837 1886
4 1447 1375 1252 1361
4 1829 1837 1886 1903
4 1321 1416 1423 1372
4 1982 1969 1951 1903
4 1423 1321 1372 1229
4 2234 2201 2251 2278
4 1977 1982 1923 1903
4 1801 1832 1757 1756
4 1470 1416 1372 1423
4 1485 1435 1339 1352
4 1967 1985 1968 1893
4 1993 1914 1976 1933
4 902 802 982 911
4 1933 1966 1894 1917
4 1612 1547 1571 1605
4 1969 1982 1977 1903
4 2121 2163 2210 2241
4 1914 1876 1940 1961
4 1243 1185 1107 1222
4 1912 1903 1977 1893
4 1156 1222 1107 1185
4 1776 1725 1775 1831
4 2213 2270 2191 2246
4 937 989 1240 1127
4 2213 2191 2140 2085
4 877 1043 874 786
4 1933 1993 2028 1966
4 2261 2234 2286 2278
4 1812 1831 1775 1725
4 1933 1993 1966 1976
4 2023 2016 1930 1949
4 1607 1612 1598 1547
4 420 450 446 448
4 446 420 448 437
4 450 446 448 478
4 420 450 448 422
4 468 498 489 508
4 450 473 446 478
4 502 526 535 518
4 351 335 325 352
4 400 394 373 399
4 432 411 415 403
4 448 450 478 458
4 325 351 352 338
4 489 468 508 456
4 511 547 538 565
4 335 312 325 352
4 394 373 399 359
4 355 349 328 353
4 446 420 437 408
4 506 502 535 497
4 349 328 353 311
4 376 400 373 399
4 498 523 489 508
4 415 411 392 383
4 538 511 565 499
4 547 579 538 565
4 331 355 328 353
4 446 448 478 467
4 478 448 458 467
4 448 446 437 467
4 420 448 437 419
4 362 335 351 369
4 312 283 297 314
4 473 498 468 508
4 297 283 270 292
4 362 351 372 379
4 400 422 394 424
4 351 335 352 369
4 335 352 369 341
4 352 369 341 383
4 385 362 372 379
4 385 372 398 406
4 535 526 568 518
4 409 398 416 442
4 491 477 469 452
4 588 621 628 604
4 409 385 398 406
4 400 394 399 424
4 399 400 424 407
4 424 399 407 451
4 469 459 445 426
4 556 588 592 576
4 526 556 568 544
4 479 474 506 471
4 461 425 454 427
4 553 546 543 594
4 543 553 594 554
4 446 473 468 467
4 479 454 474 451
4 461 454 479 451
4 445 432 415 403
4 371 357 343 336
4 357 332 343 315
4 173 224 195 182
4 195 173 182 140
4 283 250 270 292
4 392 384 371 360
4 384 357 371 336
4 445 459 432 426
4 568 556 592 544
4 491 501 477 470
4 469 477 459 452
4 270 250 235 265
4 592 588 628 576
4 435 425 461 427
4 621 663 673 632
4 546 536 543 591
4 41 51 36 32
4 250 223 235 265
4 1074 1083 1122 1010
4 412 402 435 405
4 523 547 511 570
4 515 501 491 470
4 435 402 425 405
4 431 416 444 463
4 422 420 394 419
4 20 11 15 9
4 542 533 515 494
4 355 376 349 353
4 628 621 673 604
4 332 308 320 287
4 235 223 204 230
4 325 312 297 314
4 865 851 857 760
4 673 663 726 632
4 431 409 416 449
4 343 332 320 315
4 515 533 501 494
4 351 372 379 381
4 320 308 293 287
4 224 234 195 182
4 1090 1035 1052 962
4 1035 1052 962 930
4 388 378 412 386
4 25 20 15 19
4 574 586 557 537
4 542 557 533 512
4 411 384 392 383
4 376 373 349 374
4 398 416 442 433
4 308 281 293 260
4 223 179 204 230
4 574 557 542 512
4 352 351 369 379
4 369 352 379 396
4 352 351 379 381
4 62 48 58 43
4 1108 1074 1122 1002
4 235 270 265 266
4 281 254 268 232
4 663 703 726 671
4 270 297 292 282
4 455 431 444 463
4 726 703 765 671
4 712 729 676 805
4 506 474 502 497
4 394 399 424 419
4 703 744 765 718
4 412 378 402 386
4 372 398 406 395
4 293 281 268 260
4 489 523 511 570
4 511 547 565 570
4 547 565 570 622
4 565 570 622 671
4 871 865 857 760
4 388 356 378 366
4 360 383 392 384
4 326 347 346 334
4 427 461 451 454
4 287 315 320 332
4 918 1039 949 922
4 949 918 922 818
4 179 147 161 165
4 60 51 41 49
4 9 19 15 20
4 275 286 288 262
4 288 275 262 279
4 204 235 230 222
4 426 452 469 459
4 497 535 518 502
4 268 254 236 232
4 213 219 225 189
4 225 213 189 221
4 512 537 574 557
4 62 58 70 59
4 58 70 59 69
4 1010 1134 1015 1008
4 1015 1010 1008 886
4 49 65 60 52
4 49 65 52 63
4 121 144 141 157
4 366 388 386 378
4 600 615 586 562
4 19 32 25 24
4 19 32 24 27
4 829 935 859 868
4 765 744 813 718
4 760 771 871 772
4 760 771 772 636
4 791 894 829 834
4 455 444 464 480
4 256 269 275 239
4 275 256 239 241
4 206 232 236 254
4 403 426 445 432
4 604 673 632 621
4 254 226 236 206
4 451 479 471 474
4 661 684 764 702
4 661 684 702 581
4 1063 1035 1090 962
4 260 287 293 308
4 307 323 326 317
4 362 351 379 369
4 379 362 369 401
4 369 379 401 396
4 718 813 752 744
4 562 585 626 615
4 494 512 542 533
4 238 248 256 220
4 256 238 220 237
4 579 605 566 665
4 576 628 604 588
4 630 661 736 662
4 630 661 662 560
4 368 356 388 366
4 232 260 268 281
4 752 854 791 793
4 204 179 161 165
4 386 412 405 402
4 609 630 698 682
4 771 782 880 814
4 771 782 814 686
4 859 974 889 843
4 889 859 843 749
4 744 793 813 752
4 32 49 41 51
4 632 726 671 663
4 219 192 231 225
4 684 714 796 727
4 684 714 727 606
4 889 1003 918 895
4 918 889 895 784
4 518 568 544 526
4 167 206 208 226
4 315 336 343 357
4 383 403 415 411
4 1002 1122 1010 1074
4 313 331 299 324
4 100 121 119 109
4 100 121 109 108
4 346 368 366 356
4 600 586 574 537
4 544 592 576 556
4 65 81 77 75
4 65 81 75 63
4 712 676 649 756
4 676 649 756 623
4 181 187 197 154
4 197 181 154 203
4 452 470 491 477
4 471 506 497 474
4 537 562 600 586
4 368 334 356 346
4 144 167 164 185
4 405 435 427 425
4 842 831 817 706
4 197 202 213 163
4 213 197 163 203
4 81 100 93 92
4 81 100 92 86
4 416 444 463 441
4 288 305 307 291
4 585 609 667 647
4 336 360 371 384
4 671 765 718 703
4 472 455 464 480
4 225 231 238 192
4 470 494 515 501
4 347 334 368 346
4 409 398 442 406
4 566 605 587 624
4 297 283 292 314
4 283 292 314 289
4 292 314 289 336
4 192 212 231 238
4 565 511 570 521
4 626 615 600 562
4 313 299 278 324
4 385 372 406 379
4 372 406 379 381
4 538 579 566 597
4 813 793 854 752
4 376 373 374 399
4 373 374 399 359
4 161 147 135 165
4 831 810 817 714
4 270 250 265 292
4 444 464 480 441
4 236 226 208 206
4 472 464 482 504
4 546 543 594 591
4 594 546 591 636
4 591 594 636 732
4 331 328 299 324
4 226 185 208 167
4 292 297 314 330
4 147 122 135 136
4 176 170 175 145
4 559 614 555 561
4 416 409 442 449
4 409 442 449 436
4 442 449 436 494
4 854 834 894 791
4 616 651 697 614
4 35 18 29 33
4 274 251 259 229
4 626 647 615 585
4 1 5 6 4
4 398 442 406 433
4 464 482 504 481
4 208 185 164 167
4 605 625 587 692
4 215 205 196 155
4 347 317 334 326
4 265 270 292 266
4 399 424 419 451
4 667 647 626 585
4 290 313 278 301
4 747 740 837 701
4 98 83 80 91
4 323 317 347 326
4 931 841 839 837
4 793 834 854 791
4 587 566 624 548
4 488 472 482 525
4 119 121 141 132
4 170 169 171 137
4 25 32 41 36
4 450 448 422 458
4 667 682 647 609
4 442 416 449 463
4 449 442 463 512
4 442 416 463 433
4 712 676 756 805
4 756 712 805 818
4 805 756 818 947
4 871 771 880 876
4 269 286 275 246
4 974 1003 889 944
4 349 376 374 353
4 374 349 353 311
4 894 935 829 868
4 235 223 230 265
4 230 235 265 266
4 538 579 597 565
4 597 538 565 499
4 62 58 59 43
4 1 2 0 3
4 1122 1134 1010 1083
4 202 219 213 166
4 667 609 698 682
4 185 157 164 144
4 286 305 288 273
4 93 100 119 107
4 736 661 764 753
4 431 416 463 449
4 463 431 449 486
4 449 463 486 512
4 248 269 256 228
4 1141 1036 1140 1093
4 1134 1140 1015 1008
4 448 420 422 419
4 60 65 77 68
4 834 868 894 829
4 7 9 15 11
4 1039 1063 949 998
4 305 323 307 291
4 764 684 796 785
4 187 202 197 158
4 698 630 736 722
4 1003 1039 918 970
4 935 974 859 905
4 177 187 181 148
4 77 81 93 85
4 890 887 795 893
4 880 782 887 885
4 323 291 317 307
4 141 144 164 157
4 231 248 238 212
4 796 714 817 810
4 135 122 114 123
4 114 135 123 150
4 420 437 408 419
4 201 186 205 160
4 502 493 526 485
4 526 502 485 518
4 48 35 42 27
4 42 35 33 18
4 455 444 480 463
4 444 480 463 441
4 488 482 500 530
4 482 500 530 481
4 555 546 553 594
4 968 1108 1002 987
4 1002 968 987 866
4 437 448 467 419
4 616 559 563 567
4 839 754 747 707
4 290 278 252 276
4 278 252 276 253
4 215 224 173 182
4 437 446 408 468
4 432 418 411 413
4 411 432 413 403
4 22 29 13 30
4 373 349 374 359
4 729 740 694 866
4 694 740 701 837
4 543 594 591 608
4 587 625 611 669
4 611 587 669 548
4 732 760 857 851
4 868 905 935 859
4 949 1063 947 938
4 947 949 938 818
4 857 851 842 732
4 274 290 252 279
4 158 166 202 163
4 158 166 163 125
4 202 158 163 197
4 166 202 163 213
4 729 694 676 805
4 305 273 291 288
4 507 488 500 530
4 171 143 177 175
4 177 143 148 181
4 714 706 817 831
4 157 132 141 121
4 625 656 611 669
4 187 148 158 154
4 148 158 154 125
4 158 187 154 197
4 187 148 154 181
4 48 42 58 39
4 698 722 682 630
4 122 98 114 108
4 1090 1052 1108 962
4 880 885 876 814
4 885 876 814 897
4 876 880 814 771
4 880 885 814 782
4 473 446 478 467
4 1108 1052 1074 987
4 1052 1074 987 1009
4 1074 1108 987 1002
4 1108 1052 987 962
4 1052 987 962 930
4 80 62 70 59
4 80 70 91 83
4 851 831 842 706
4 579 566 597 665
4 25 36 20 24
4 36 20 24 26
4 20 25 24 19
4 25 36 24 32
4 532 522 514 590
4 514 532 590 517
4 394 399 419 359
4 335 352 341 312
4 472 464 504 480
4 464 504 480 510
4 683 712 649 756
4 871 876 865 772
4 876 865 772 872
4 865 871 772 760
4 871 876 772 771
4 1035 1052 930 980
4 214 251 229 259
4 566 538 597 499
4 234 251 214 237
4 683 649 627 735
4 649 627 735 623
4 166 192 219 189
4 166 192 189 159
4 219 166 189 213
4 192 219 189 225
4 566 605 624 665
4 676 756 805 792
4 536 522 532 590
4 905 944 974 843
4 905 944 843 850
4 974 905 843 859
4 944 974 843 889
4 121 119 109 132
4 119 109 132 107
4 109 132 107 142
4 119 109 107 100
4 269 275 239 246
4 239 269 246 228
4 246 239 228 191
4 239 269 228 256
4 274 252 229 259
4 24 20 19 9
4 100 93 92 107
4 93 92 107 85
4 92 107 85 96
4 93 92 85 81
4 286 288 262 273
4 262 286 273 246
4 273 262 246 245
4 262 286 246 275
4 238 248 220 212
4 248 220 212 228
4 220 212 228 159
4 248 220 228 256
4 195 234 214 199
4 772 865 760 851
4 772 865 851 872
4 714 796 727 810
4 796 727 810 785
4 727 810 785 830
4 796 727 785 684
4 523 489 508 570
4 81 77 75 85
4 77 75 85 68
4 75 85 68 96
4 77 75 68 65
4 1039 949 922 998
4 922 1039 998 970
4 998 922 970 919
4 922 1039 970 918
4 764 661 702 753
4 702 764 753 785
4 753 702 785 781
4 702 764 785 684
4 312 325 352 314
4 60 49 52 51
4 52 60 51 68
4 51 52 68 53
4 52 60 68 65
4 49 52 51 32
4 611 656 627 700
4 627 611 700 582
4 661 736 662 753
4 736 662 753 722
4 662 753 722 721
4 736 662 722 630
4 473 498 508 513
4 498 508 513 552
4 508 513 552 576
4 889 1003 895 944
4 1003 895 944 970
4 895 944 970 919
4 1003 895 970 918
4 507 500 514 550
4 500 514 550 517
4 189 192 225 238
4 543 536 532 608
4 446 437 467 468
4 379 362 401 385
4 114 98 91 83
4 1010 1134 1008 1083
4 1134 1008 1083 1069
4 1008 1083 1069 1009
4 351 372 381 338
4 275 256 241 259
4 814 876 771 772
4 814 876 772 897
4 771 814 772 686
4 662 722 630 682
4 662 722 682 721
4 166 189 213 163
4 166 189 163 125
4 189 213 163 182
4 482 472 504 525
4 472 504 525 509
4 504 525 509 585
4 398 416 433 395
4 81 100 86 83
4 376 400 399 407
4 987 1074 1002 1010
4 148 154 181 143
4 148 154 143 106
4 355 376 353 377
4 522 507 514 550
4 109 121 132 157
4 132 109 157 142
4 1015 1010 886 837
4 771 782 686 614
4 1008 1010 1083 987
4 885 814 782 767
4 154 158 197 163
4 154 158 163 125
4 197 154 163 203
4 656 683 627 700
4 468 473 508 467
4 905 843 859 868
4 905 843 868 850
4 36 24 32 52
4 605 587 624 692
4 624 605 692 665
4 692 624 665 791
4 498 523 508 552
4 42 58 39 54
4 288 262 273 291
4 262 273 291 245
4 235 270 266 282
4 727 714 810 831
4 810 727 831 830
4 488 482 530 525
4 458 422 424 419
4 341 314 312 352
4 328 331 353 324
4 58 48 39 43
4 1063 998 1035 938
4 998 1035 938 930
4 1035 1063 938 962
4 938 1035 962 930
4 1063 998 938 949
4 949 922 998 938
4 922 998 938 919
4 949 922 938 818
4 135 122 123 136
4 290 278 276 301
4 570 565 521 671
4 275 239 246 262
4 239 246 262 191
4 275 239 262 241
4 92 100 107 109
4 107 92 109 110
4 92 100 109 86
4 75 68 65 52
4 75 68 52 73
4 65 75 52 63
4 547 579 565 622
4 422 394 424 419
4 192 159 212 183
4 212 192 183 220
4 183 212 220 159
4 212 192 220 238
4 420 394 419 408
4 587 625 669 692
4 661 702 753 662
4 702 753 662 781
4 661 702 662 550
4 895 889 944 843
4 944 895 843 919
4 895 889 843 700
4 331 355 353 354
4 270 266 282 292
4 195 234 199 182
4 199 195 182 140
4 970 922 918 895
4 970 922 895 919
4 922 918 895 735
4 433 398 395 406
4 493 526 485 556
4 727 785 684 702
4 727 785 702 781
4 684 727 702 590
4 424 458 419 471
4 214 195 199 140
4 220 228 256 239
4 220 228 239 191
4 256 220 239 241
4 353 355 377 354
4 377 353 354 386
4 432 418 413 459
4 75 81 85 92
4 85 75 92 96
4 75 81 92 86
4 48 42 39 27
4 252 290 276 279
4 122 114 123 108
4 381 351 338 352
4 409 385 406 436
4 283 250 292 289
4 279 274 259 252
4 108 83 98 114
4 472 504 509 480
4 504 509 480 545
4 454 438 474 434
4 474 454 434 451
4 250 223 265 255
4 265 250 255 289
4 255 265 289 287
4 732 636 760 716
4 760 732 716 851
4 530 488 525 560
4 525 530 560 609
4 962 938 930 792
4 1052 987 930 1009
4 714 606 706 670
4 706 714 670 831
4 1108 1090 962 968
4 1090 962 968 947
4 962 968 947 792
4 1090 962 947 1063
4 611 656 700 669
4 700 611 669 582
4 597 579 665 622
4 665 597 622 752
4 384 370 357 345
4 357 384 345 336
4 625 669 692 749
4 669 692 749 829
4 507 500 550 530
4 500 550 530 549
4 223 179 230 218
4 186 146 176 196
4 683 649 735 756
4 649 735 756 623
4 215 224 182 203
4 504 482 525 530
4 525 504 530 609
4 504 482 530 481
4 477 476 459 439
4 459 477 439 452
4 385 406 436 401
4 406 436 401 439
4 385 406 401 379
4 406 401 379 439
4 374 376 399 407
4 399 374 407 389
4 374 376 407 377
4 407 374 377 389
4 374 376 377 353
4 377 374 353 361
4 502 493 485 474
4 1036 958 931 1015
4 556 551 588 516
4 588 556 516 576
4 536 543 591 608
4 587 624 692 669
4 624 692 669 829
4 587 624 669 548
4 597 579 622 565
4 622 597 565 612
4 455 431 463 486
4 555 546 594 636
4 418 411 413 384
4 442 409 406 436
4 406 442 436 443
4 627 683 735 700
4 735 627 700 678
4 80 62 59 63
4 234 214 199 237
4 621 613 663 583
4 663 621 583 632
4 48 39 43 27
4 39 43 27 24
4 250 265 292 289
4 265 292 289 304
4 1134 1140 1008 1069
4 448 422 458 419
4 458 448 419 467
4 402 387 425 391
4 425 402 391 405
4 472 455 480 509
4 455 480 509 486
4 480 509 486 545
4 513 473 478 467
4 522 514 590 550
4 514 590 550 517
4 314 292 330 336
4 332 319 308 304
4 224 234 182 221
4 182 224 221 203
4 221 182 203 213
4 683 712 756 818
4 962 1108 968 987
4 968 962 987 792
4 533 529 501 443
4 223 230 265 255
4 230 265 255 272
4 223 230 255 218
4 230 255 218 272
4 170 175 145 171
4 123 122 108 136
4 108 123 136 121
4 697 767 795 782
4 1002 987 1010 866
4 59 62 43 63
4 43 59 63 52
4 5 6 4 14
4 987 962 930 792
4 455 480 486 463
4 480 486 463 545
4 1 5 4 2
4 179 204 230 165
4 290 276 279 301
4 276 279 301 288
4 6 14 13 18
4 1010 1008 886 987
4 782 814 686 767
4 1008 1015 886 958
4 175 176 145 146
4 19 24 9 27
4 703 693 744 612
4 18 29 33 14
4 49 52 32 43
4 706 732 842 851
4 356 339 378 344
4 378 356 344 366
4 281 267 254 247
4 254 281 247 232
4 225 189 238 237
4 278 299 253 280
4 278 299 280 324
4 586 584 557 528
4 557 586 528 537
4 837 747 701 839
4 1140 1015 1008 958
4 565 511 521 499
4 625 669 749 656
4 317 294 334 302
4 334 317 302 326
4 383 403 411 413
4 383 403 413 396
4 403 413 396 439
4 383 403 396 369
4 413 383 396 330
4 518 497 502 485
4 518 497 485 478
4 793 773 834 713
4 834 793 713 791
4 507 488 530 560
4 508 473 513 467
4 931 958 841 886
4 594 591 608 732
4 553 555 594 614
4 624 566 665 597
4 665 624 597 713
4 624 566 597 548
4 647 645 615 545
4 226 211 185 184
4 185 226 184 167
4 962 947 1063 938
4 962 947 938 792
4 173 215 182 196
4 161 135 150 156
4 161 135 156 165
4 341 314 352 330
4 477 476 439 501
4 485 526 518 544
4 42 58 54 69
4 352 341 330 383
4 454 438 434 391
4 432 413 403 426
4 411 383 413 384
4 7 9 11 4
4 352 325 338 330
4 58 59 43 39
4 59 43 39 45
4 58 59 39 54
4 497 502 485 474
4 551 588 516 583
4 370 357 345 332
4 651 767 697 686
4 369 352 396 383
4 782 887 885 767
4 229 252 198 227
4 229 252 227 259
4 199 234 237 221
4 237 199 221 183
4 199 234 221 182
4 221 199 182 183
4 814 772 686 745
4 413 432 459 426
4 192 183 220 238
4 183 220 238 237
4 239 262 241 210
4 513 508 467 516
4 735 683 756 818
4 756 735 818 938
4 735 683 818 784
4 818 735 784 918
4 735 683 784 700
4 784 735 700 895
4 1015 1140 1036 958
4 782 795 887 767
4 1052 930 980 1009
4 526 485 556 544
4 92 75 86 73
4 656 683 700 784
4 700 656 784 749
4 784 700 749 889
4 109 92 86 110
4 522 507 550 581
4 507 550 581 560
4 550 581 560 661
4 478 513 467 544
4 307 326 301 285
4 307 326 285 317
4 144 136 167 152
4 167 144 152 185
4 220 239 241 210
4 354 331 324 353
4 609 560 630 602
4 630 609 602 682
4 508 468 467 456
4 613 663 583 703
4 837 740 866 694
4 232 218 260 247
4 260 232 247 281
4 386 405 377 361
4 437 408 419 421
4 366 386 354 344
4 366 386 344 378
4 192 159 183 189
4 183 192 189 238
4 218 165 179 230
4 756 805 792 947
4 614 636 555 594
4 402 387 391 344
4 829 859 749 762
4 829 859 762 868
4 260 255 287 272
4 203 215 196 182
4 536 522 590 606
4 522 590 606 581
4 590 606 581 684
4 522 590 581 550
4 590 581 550 702
4 604 632 552 583
4 604 632 583 621
4 83 63 80 59
4 405 427 407 391
4 405 427 391 425
4 512 486 537 528
4 537 512 528 557
4 70 80 59 83
4 27 18 35 42
4 259 251 237 214
4 470 436 494 443
4 671 718 622 612
4 341 314 330 360
4 287 289 315 304
4 215 173 155 196
4 114 123 108 86
4 206 218 232 247
4 576 604 552 583
4 570 523 552 508
4 68 52 73 53
4 718 752 622 612
4 866 729 805 694
4 591 606 536 608
4 315 289 336 304
4 109 107 110 142
4 276 252 279 227
4 656 700 669 749
4 700 669 749 762
4 452 436 470 443
4 427 451 407 389
4 186 160 146 196
4 346 366 354 344
4 537 486 562 528
4 75 68 73 96
4 107 92 110 96
4 930 1035 980 998
4 379 352 381 396
4 550 507 530 560
4 530 550 560 602
4 121 136 144 152
4 144 121 152 157
4 614 636 594 686
4 614 636 686 771
4 576 544 556 516
4 576 544 516 513
4 471 451 474 434
4 471 451 434 419
4 100 109 86 108
4 372 406 381 395
4 196 203 182 151
4 451 427 454 391
4 83 63 59 86
4 83 63 86 81
4 218 165 230 209
4 288 307 301 285
4 288 307 285 291
4 360 383 384 345
4 497 471 474 434
4 75 81 86 63
4 604 576 588 583
4 253 278 280 276
4 278 280 276 301
4 280 276 301 285
4 426 452 459 439
4 426 452 439 401
4 356 339 344 302
4 315 336 357 345
4 752 791 665 713
4 752 791 713 793
4 256 220 241 237
4 452 470 477 439
4 938 998 930 919
4 1036 1093 958 1140
4 267 254 247 184
4 425 438 454 391
4 91 70 69 71
4 91 70 71 83
4 292 297 330 282
4 606 706 670 591
4 336 360 384 345
4 336 360 345 330
4 588 551 621 583
4 123 135 136 156
4 123 135 156 150
4 136 123 156 152
4 772 771 686 636
4 586 584 528 615
4 39 42 54 28
4 562 509 585 545
4 585 562 545 615
4 262 275 241 279
4 636 760 716 772
4 760 716 772 851
4 211 185 184 152
4 185 184 152 167
4 184 152 167 165
4 52 75 73 71
4 406 379 381 439
4 516 588 576 583
4 165 136 147 135
4 287 315 332 304
4 357 345 332 315
4 324 313 301 278
4 557 529 533 496
4 533 557 496 512
4 260 287 308 272
4 230 235 266 222
4 214 229 198 227
4 439 477 501 470
4 454 434 451 391
4 308 319 281 272
4 560 530 602 609
4 14 30 13 29
4 70 69 71 59
4 71 70 59 83
4 204 161 222 209
4 494 512 533 496
4 494 512 496 442
4 671 632 663 583
4 317 294 302 285
4 302 317 285 326
4 285 302 326 324
4 555 553 561 614
4 437 408 421 457
4 437 408 457 456
4 352 325 330 314
4 177 181 175 143
4 714 606 670 727
4 670 714 727 831
4 416 463 433 441
4 543 594 608 554
4 773 834 713 868
4 276 252 227 253
4 732 636 716 594
4 636 716 594 686
4 58 54 69 59
4 669 749 762 829
4 378 387 402 344
4 292 265 266 304
4 470 494 501 443
4 2 4 7 8
4 405 386 402 391
4 442 406 433 443
4 384 370 345 418
4 381 372 395 338
4 413 403 426 439
4 366 346 356 344
4 552 570 508 521
4 508 552 521 583
4 51 36 32 52
4 51 36 52 53
4 254 267 226 184
4 752 718 744 612
4 324 354 353 318
4 265 230 266 272
4 718 671 703 612
4 416 433 395 441
4 266 235 282 222
4 20 11 9 17
4 20 11 17 26
4 744 693 793 612
4 476 459 439 418
4 206 232 254 247
4 463 442 433 496
4 532 536 590 608
4 590 532 608 517
4 11 8 7 4
4 1074 1083 1010 987
4 1074 1083 987 1009
4 537 562 586 528
4 334 339 356 302
4 556 551 516 493
4 663 583 703 671
4 518 485 544 478
4 767 893 795 887
4 438 474 434 493
4 528 586 615 562
4 676 756 792 623
4 346 326 334 302
4 346 326 302 324
4 377 374 361 389
4 291 294 317 285
4 532 543 608 554
4 353 377 361 386
4 834 713 868 829
4 552 570 521 632
4 529 533 496 443
4 42 39 27 28
4 622 597 612 752
4 43 39 45 24
4 145 137 170 171
4 588 621 604 583
4 167 206 226 184
4 167 206 184 165
4 682 645 647 545
4 533 501 494 443
4 185 211 157 152
4 504 509 545 585
4 332 308 287 304
4 425 454 427 391
4 841 707 839 701
4 533 494 496 443
4 859 749 762 843
4 762 859 843 868
4 703 744 718 612
4 239 262 210 191
4 544 556 516 485
4 560 630 602 662
4 630 602 662 682
4 308 281 260 272
4 136 123 152 121
4 214 229 227 259
4 1 3 5 2
4 585 609 647 545
4 292 289 304 336
4 378 402 386 344
4 276 301 285 288
4 386 405 361 391
4 405 361 391 377
4 214 199 237 241
4 436 406 443 439
4 829 791 834 713
4 616 567 651 614
4 265 255 272 287
4 814 772 745 897
4 459 426 439 413
4 334 356 346 302
4 59 39 54 45
4 621 613 583 551
4 254 226 206 184
4 701 747 707 839
4 203 182 151 163
4 452 470 439 443
4 317 291 285 307
4 230 218 209 272
4 504 480 510 545
4 315 336 345 304
4 161 204 165 209
4 279 276 227 233
4 559 616 614 567
4 387 425 391 438
4 325 297 338 330
4 157 185 152 144
4 744 793 752 612
4 297 325 314 330
4 123 108 86 109
4 18 13 29 14
4 59 43 45 52
4 354 353 318 361
4 480 464 510 441
4 42 33 47 28
4 42 33 28 18
4 275 241 279 259
4 241 279 259 227
4 259 241 227 214
4 241 279 227 233
4 227 241 233 210
4 233 227 210 216
4 241 233 210 262
4 233 210 262 245
4 210 233 216 245
4 241 233 262 279
4 196 205 186 160
4 407 399 389 451
4 86 100 108 83
4 108 86 83 114
4 289 265 304 287
4 647 615 585 545
4 671 632 583 521
4 220 183 159 210
4 511 489 570 521
4 511 489 521 456
4 1140 1008 1069 958
4 442 436 443 494
4 33 29 30 14
4 694 701 646 792
4 464 504 510 481
4 584 557 528 529
4 171 137 143 145
4 281 267 247 319
4 339 378 344 387
4 791 829 692 624
4 247 260 281 272
4 247 260 272 218
4 565 622 612 671
4 230 204 222 209
4 585 525 609 504
4 159 183 189 129
4 756 818 947 938
4 379 401 396 439
4 437 467 468 456
4 374 353 361 311
4 682 647 609 545
4 471 497 458 419
4 887 893 885 767
4 591 606 608 670
4 606 608 670 590
4 606 608 590 536
4 608 670 590 610
4 670 606 590 727
4 512 528 557 496
4 528 557 496 529
4 360 341 383 330
4 399 374 389 359
4 597 565 612 499
4 701 694 837 792
4 328 299 324 318
4 11 9 17 4
4 294 334 302 339
4 407 377 405 391
4 550 530 549 602
4 694 676 805 792
4 694 676 792 623
4 43 32 27 24
4 299 253 280 295
4 226 211 184 267
4 123 156 152 126
4 793 773 713 693
4 255 260 218 272
4 512 528 496 463
4 281 247 272 319
4 280 276 285 216
4 700 735 678 895
4 114 91 112 101
4 114 91 101 86
4 237 221 225 189
4 63 49 43 52
4 608 670 610 699
4 413 396 439 381
4 360 383 345 330
4 5 16 14 12
4 14 5 12 4
4 944 843 850 919
4 508 489 456 521
4 508 489 521 570
4 497 471 434 419
4 651 709 767 686
4 403 396 369 426
4 403 396 426 439
4 396 426 439 401
4 1010 886 837 866
4 886 837 866 792
4 814 885 897 767
4 958 832 841 886
4 24 20 9 17
4 24 20 17 26
4 146 111 145 133
4 145 146 133 175
4 150 161 156 222
4 256 241 259 237
4 241 259 237 214
4 509 562 486 545
4 1083 1008 987 1009
4 866 805 968 792
4 866 805 792 694
4 156 161 165 209
4 299 280 324 318
4 494 496 443 442
4 324 354 318 346
4 713 752 793 612
4 886 1015 837 931
4 218 165 209 206
4 602 662 682 721
4 608 670 699 716
4 36 24 52 53
4 843 762 868 850
4 782 686 614 697
4 467 437 419 421
4 91 114 83 86
4 196 203 151 181
4 276 227 233 216
4 500 550 549 517
4 436 452 401 439
4 829 791 713 624
4 427 451 389 391
4 389 427 391 407
4 252 198 227 253
4 163 154 125 151
4 163 154 151 203
4 39 27 28 24
4 166 189 125 159
4 530 500 549 481
4 401 369 396 426
4 279 259 227 252
4 700 669 762 678
4 189 183 238 237
4 727 670 831 830
4 735 627 678 623
4 627 700 678 582
4 328 353 311 295
4 311 328 295 299
4 328 295 299 318
4 136 167 152 165
4 171 143 175 145
4 550 560 602 662
4 947 968 805 792
4 326 301 285 324
4 706 591 732 670
4 732 706 670 851
4 1010 886 866 987
4 749 700 762 843
4 183 189 129 182
4 510 464 481 441
4 156 136 152 165
4 124 146 160 155
4 922 895 919 678
4 391 389 407 377
4 585 609 545 504
4 227 241 210 174
4 301 280 285 324
4 301 280 324 278
4 9 24 17 28
4 338 381 352 330
4 419 394 359 408
4 220 239 210 191
4 262 246 245 191
4 1034 958 1093 1069
4 662 753 721 781
4 280 299 295 318
4 295 280 318 302
4 280 318 302 324
4 395 433 406 443
4 458 478 467 485
4 156 136 165 135
4 467 437 421 457
4 467 437 457 456
4 288 262 291 285
4 228 220 159 191
4 227 241 174 214
4 282 266 222 277
4 716 772 851 872
4 109 121 157 152
4 433 395 441 417
4 266 282 292 304
4 608 591 670 732
4 665 597 752 713
4 328 353 295 318
4 968 987 866 792
4 562 545 615 528
4 784 700 889 895
4 353 328 324 318
4 408 437 468 456
4 609 602 682 545
4 92 75 73 96
4 154 148 125 106
4 154 181 143 133
4 550 581 661 702
4 762 829 868 713
4 670 706 831 851
4 184 211 152 172
4 152 184 172 156
4 152 184 156 165
4 624 665 791 713
4 876 772 897 872
4 11 17 26 8
4 11 17 8 4
4 457 467 456 521
4 361 386 391 344
4 391 361 344 329
4 361 344 329 318
4 361 344 318 354
4 361 386 344 354
4 344 329 318 302
4 318 344 302 346
4 302 318 346 324
4 391 361 329 389
4 391 361 389 377
4 265 266 304 272
4 304 265 272 287
4 272 304 287 308
4 294 302 285 263
4 302 285 263 280
4 302 285 280 324
4 123 156 126 150
4 175 176 146 196
4 636 716 686 772
4 716 686 772 745
4 189 163 125 129
4 189 163 129 182
4 69 71 59 54
4 374 361 389 337
4 354 353 361 386
4 36 24 53 26
4 433 442 443 496
4 63 59 86 75
4 16 14 12 38
4 590 608 610 517
4 205 155 160 196
4 732 716 851 670
4 581 590 684 702
4 735 784 918 895
4 253 280 295 263
4 146 111 133 124
4 33 28 18 14
4 772 716 745 872
4 561 553 554 634
4 561 553 634 686
4 958 1093 1069 1140
4 221 182 213 189
4 510 504 545 602
4 480 510 545 463
4 893 885 767 897
4 686 814 745 767
4 843 889 749 700
4 6 4 14 18
4 199 237 241 183
4 549 500 517 481
4 14 38 30 47
4 155 173 140 151
4 276 279 288 262
4 508 513 576 516
4 91 101 86 71
4 101 86 71 110
4 91 101 71 112
4 83 91 86 71
4 86 83 71 59
4 159 183 129 174
4 204 230 165 209
4 69 71 54 66
4 54 69 66 79
4 716 732 594 608
4 108 123 121 109
4 661 662 560 550
4 54 42 69 47
4 54 42 47 28
4 146 160 155 196
4 71 86 59 75
4 279 276 233 262
4 182 173 196 151
4 785 727 830 781
4 111 145 133 103
4 336 345 304 292
4 133 145 175 143
4 594 553 614 686
4 678 627 582 623
4 5 16 12 8
4 893 767 904 897
4 156 152 126 172
4 299 253 295 311
4 439 452 443 436
4 559 614 561 567
4 841 931 886 837
4 336 314 360 330
4 107 110 142 96
4 818 735 918 922
4 463 486 512 528
4 8 3 2 5
4 886 1015 931 958
4 451 471 424 419
4 280 253 276 216
4 54 39 28 45
4 209 218 206 247
4 209 218 247 272
4 247 209 272 240
4 272 247 240 319
4 247 209 240 184
4 247 209 184 206
4 209 184 206 165
4 203 151 181 154
4 151 181 154 133
4 154 151 133 106
4 344 318 354 346
4 266 304 272 298
4 304 272 298 319
4 632 671 570 521
4 5 12 4 8
4 697 651 686 614
4 590 606 684 727
4 30 33 14 47
4 494 449 512 442
4 27 9 18 28
4 18 27 28 42
4 782 686 697 767
4 110 109 142 126
4 163 213 203 182
4 792 866 694 837
4 24 32 52 45
4 24 32 45 43
4 32 52 45 43
4 52 24 45 53
4 165 156 209 184
4 156 209 184 172
4 209 184 172 240
4 496 529 443 484
4 443 496 484 433
4 151 181 133 196
4 133 151 196 155
4 451 389 391 434
4 389 391 434 382
4 389 391 382 329
4 451 389 434 419
4 434 389 382 419
4 71 59 54 45
4 71 59 45 52
4 831 851 830 670
4 530 549 602 510
4 173 155 196 151
4 109 121 152 123
4 395 381 338 375
4 288 262 285 276
4 112 114 101 126
4 101 112 126 99
4 126 101 99 110
4 114 101 126 123
4 114 101 123 86
4 101 126 123 109
4 101 123 86 109
4 183 129 174 199
4 361 389 337 329
4 69 91 71 112
4 374 349 311 359
4 843 762 850 770
4 843 762 770 678
4 504 510 481 530
4 504 510 530 602
4 530 504 602 609
4 418 413 459 439
4 575 567 561 651
4 841 839 837 701
4 594 716 608 634
4 594 716 634 686
4 716 634 686 745
4 716 634 745 699
4 634 686 745 561
4 175 181 196 133
4 69 54 47 79
4 485 493 556 516
4 501 470 443 439
4 480 510 463 441
4 184 211 172 240
4 552 508 576 583
4 294 302 263 329
4 182 173 151 140
4 3 8 10 5
4 315 332 304 345
4 68 73 96 53
4 4 18 9 28
4 386 402 391 344
4 383 413 384 345
4 553 594 554 634
4 553 594 634 686
4 553 561 614 686
4 285 263 280 216
4 174 183 199 241
4 608 594 634 554
4 745 814 897 767
4 24 17 28 37
4 24 17 37 26
4 17 28 37 12
4 17 28 12 4
4 602 662 721 650
4 602 662 650 550
4 485 497 474 434
4 181 175 143 133
4 406 381 395 443
4 511 521 499 456
4 33 47 28 14
4 552 521 583 632
4 651 686 614 561
4 980 930 998 919
4 227 210 216 198
4 47 54 28 37
4 86 101 109 110
4 156 161 209 222
4 346 356 344 302
4 938 922 919 678
4 254 206 247 184
4 1008 1069 958 882
4 1008 1069 882 1009
4 5 4 2 8
4 17 37 26 21
4 92 110 96 73
4 110 96 73 99
4 126 114 123 150
4 886 841 837 701
4 837 886 701 792
4 493 485 474 434
4 408 457 456 404
4 922 938 818 735
4 9 17 4 28
4 399 419 359 389
4 399 419 389 451
4 670 590 610 727
4 610 670 727 830
4 353 295 318 361
4 735 756 623 783
4 735 756 783 938
4 562 486 545 528
4 396 413 330 381
4 421 467 457 516
4 413 418 384 345
4 345 370 332 304
4 476 439 501 443
4 895 843 919 770
4 895 843 770 678
4 478 458 497 485
4 263 302 280 295
4 266 230 222 240
4 291 262 245 285
4 583 613 703 693
4 17 37 21 12
4 21 17 12 8
4 610 608 699 554
4 463 433 441 484
4 381 379 396 439
4 700 669 678 582
4 707 841 659 701
4 210 227 174 198
4 496 529 484 528
4 484 496 528 463
4 919 895 770 678
4 762 669 829 713
4 69 71 66 112
4 109 157 142 152
4 156 126 150 172
4 110 142 96 149
4 866 886 792 987
4 137 145 103 143
4 262 233 245 285
4 262 233 285 276
4 566 597 548 499
4 463 486 528 545
4 75 52 63 59
4 126 101 110 109
4 584 528 615 545
4 297 330 282 338
4 374 361 337 311
4 159 183 174 210
4 389 374 337 359
4 344 391 329 387
4 608 670 716 732
4 318 295 302 329
4 713 773 868 850
4 353 311 295 361
4 375 327 364 380
4 364 375 380 414
4 364 375 414 417
4 327 364 380 340
4 327 364 340 350
4 364 340 350 397
4 340 350 397 367
4 340 350 367 309
4 350 364 397 404
4 395 433 443 484
4 230 266 272 240
4 462 447 410 380
4 92 86 110 73
4 544 516 513 467
4 266 282 304 298
4 549 550 602 650
4 602 549 650 593
4 549 650 593 598
4 549 650 598 610
4 549 650 610 550
4 476 439 443 429
4 476 439 429 418
4 439 443 429 381
4 345 370 304 333
4 345 370 333 418
4 304 345 333 330
4 345 333 330 413
4 304 345 330 292
4 330 304 292 333
4 345 330 292 336
4 152 123 126 109
4 669 611 548 582
4 662 702 781 650
4 662 702 650 550
4 550 549 517 610
4 670 610 699 830
4 216 227 198 253
4 253 295 311 258
4 308 319 272 304
4 28 12 4 14
4 28 12 14 38
4 624 669 548 664
4 624 669 664 713
4 664 624 713 580
4 713 664 580 643
4 713 664 643 773
4 643 713 773 693
4 713 664 773 850
4 209 230 272 240
4 671 703 612 583
4 664 580 643 573
4 233 285 276 216
4 163 125 129 151
4 329 361 318 295
4 101 112 99 71
4 99 101 71 110
4 549 517 610 598
4 567 561 651 614
4 156 209 172 222
4 702 781 650 727
4 650 702 727 590
4 762 868 850 713
4 174 183 241 210
4 408 421 457 404
4 481 510 441 465
4 352 396 383 330
4 352 396 330 381
4 650 598 610 704
4 610 650 704 727
4 220 241 237 183
4 220 241 183 210
4 114 112 150 126
4 26 17 21 8
4 463 442 496 512
4 682 602 721 645
4 700 762 843 678
4 664 580 573 548
4 580 573 548 492
4 573 664 548 582
4 457 456 404 453
4 664 624 580 548
4 517 549 481 503
4 198 214 227 174
4 645 615 545 584
4 497 458 419 485
4 516 544 485 467
4 380 364 414 397
4 364 340 397 380
4 521 565 499 612
4 521 565 612 671
4 406 443 439 381
4 350 397 367 421
4 590 550 517 610
4 590 550 610 650
4 99 126 110 138
4 110 99 138 117
4 772 745 897 872
4 152 126 172 142
4 643 664 573 689
4 643 664 689 773
4 419 458 467 485
4 295 311 258 310
4 295 311 310 337
4 311 310 337 309
4 295 311 337 361
4 310 337 309 367
4 310 295 337 329
4 337 311 309 359
4 337 311 359 374
4 337 310 329 382
4 433 395 417 484
4 39 45 24 28
4 646 694 792 623
4 282 266 277 298
4 713 752 612 597
4 716 608 634 699
4 309 337 359 367
4 650 602 593 721
4 593 650 721 763
4 146 133 175 196
4 467 457 516 521
4 576 516 583 508
4 99 126 138 153
4 37 26 21 55
4 793 713 612 693
4 397 340 367 393
4 330 292 282 333
4 554 561 634 578
4 133 151 155 118
4 133 151 118 106
4 602 549 593 510
4 930 980 1009 836
4 930 980 836 844
4 930 980 844 919
4 980 836 844 901
4 844 980 901 919
4 836 930 844 783
4 930 844 783 938
4 783 930 938 792
4 930 844 938 919
4 850 843 770 919
4 71 86 75 73
4 582 678 623 564
4 110 96 99 117
4 397 340 393 380
4 947 756 938 792
4 602 593 721 645
4 17 12 8 4
4 383 413 345 330
4 593 549 598 503
4 199 174 241 214
4 199 174 214 140
4 529 476 501 443
4 650 593 598 763
4 340 367 393 348
4 340 367 348 309
4 886 1008 958 882
4 886 1008 882 987
4 650 598 704 763
4 332 370 319 304
4 664 573 689 582
4 189 159 129 125
4 485 497 434 419
4 549 530 481 510
4 481 549 510 503
4 408 419 421 359
4 580 713 643 612
4 580 713 612 597
4 612 580 597 499
4 280 253 216 263
4 272 266 298 240
4 298 272 240 319
4 344 329 302 339
4 344 329 339 387
4 329 339 387 342
4 624 597 713 580
4 624 597 580 548
4 140 113 155 118
4 140 113 118 105
4 45 71 52 73
4 52 45 73 53
4 669 624 829 713
4 393 340 348 358
4 393 340 358 380
4 375 380 414 429
4 52 75 71 59
4 154 143 106 133
4 1034 1000 983 832
4 456 508 521 467
4 340 348 358 303
4 340 348 303 300
4 340 348 300 309
4 573 643 689 603
4 643 689 603 743
4 521 508 583 516
4 367 393 348 390
4 245 294 291 285
4 380 327 340 358
4 262 210 191 245
4 210 191 245 180
4 89 124 113 95
4 89 124 95 111
4 124 95 111 133
4 95 111 133 97
4 95 111 97 67
4 111 133 97 103
4 97 111 103 67
4 103 97 67 106
4 103 97 106 143
4 97 106 143 133
4 97 106 133 118
4 1000 1009 955 838
4 1000 1009 838 882
4 838 1000 882 833
4 882 838 833 724
4 882 838 724 792
4 1009 838 882 792
4 833 882 724 832
4 833 882 832 1000
4 882 724 832 886
4 724 833 832 618
4 1000 1009 882 1069
4 838 833 724 705
4 882 1000 1069 1034
4 724 838 705 687
4 724 838 687 792
4 838 833 705 951
4 838 1000 833 951
4 838 705 687 778
4 838 705 778 951
4 687 838 778 836
4 838 778 836 955
4 778 687 836 710
4 836 778 710 901
4 687 838 836 792
4 778 836 955 900
4 687 836 710 783
4 778 687 710 572
4 705 724 687 595
4 391 434 382 438
4 434 382 438 423
4 438 434 423 493
4 382 438 423 390
4 382 438 390 387
4 434 382 423 419
4 781 662 650 721
4 650 781 721 763
4 112 126 99 153
4 113 155 118 95
4 118 113 95 87
4 118 113 87 105
4 95 118 87 97
4 833 724 705 618
4 705 687 778 572
4 150 156 172 222
4 348 303 300 284
4 300 348 284 321
4 300 348 321 309
4 321 300 309 284
4 348 284 321 342
4 348 303 284 322
4 303 284 322 298
4 322 303 298 333
4 303 300 284 264
4 300 284 264 257
4 284 264 257 242
4 264 257 242 217
4 264 257 217 277
4 242 264 217 277
4 264 300 257 277
4 257 242 217 188
4 264 300 277 303
4 277 264 303 242
4 242 217 188 168
4 284 303 264 242
4 242 217 168 222
4 217 257 188 258
4 217 188 168 153
4 188 168 153 138
4 217 188 153 193
4 300 277 303 340
4 257 242 188 244
4 257 242 244 284
4 188 242 168 172
4 242 168 172 240
4 242 188 244 194
4 242 188 194 172
4 188 257 244 258
4 168 217 153 150
4 153 168 150 126
4 168 150 126 172
4 168 150 172 222
4 126 168 172 138
4 168 217 150 222
4 244 242 194 261
4 188 244 194 190
4 257 244 258 310
4 194 188 190 138
4 188 244 190 193
4 194 242 172 261
4 348 393 358 363
4 348 303 322 358
4 284 348 322 261
4 580 643 573 541
4 573 580 541 492
4 541 573 492 603
4 643 573 541 603
4 580 643 541 607
4 643 541 607 668
4 580 643 607 612
4 607 580 612 527
4 580 612 527 499
4 612 607 527 583
4 527 580 499 541
4 607 580 527 541
4 382 438 387 391
4 387 382 391 329
4 756 792 623 783
4 756 792 783 938
4 364 414 397 404
4 958 1034 832 882
4 832 958 882 886
4 687 705 595 572
4 367 397 393 423
4 244 194 190 243
4 358 340 303 327
4 113 95 87 89
4 930 987 792 836
4 28 37 12 21
4 12 28 21 31
4 12 28 31 38
4 21 12 31 16
4 12 31 16 38
4 31 16 38 61
4 21 12 16 8
4 31 21 16 61
4 38 31 61 47
4 38 31 47 28
4 31 47 28 44
4 31 47 44 61
4 28 31 44 21
4 31 44 21 61
4 44 28 21 37
4 21 44 37 55
4 44 28 37 47
4 689 573 603 534
4 762 770 678 689
4 844 783 938 919
4 24 9 27 28
4 767 709 904 745
4 836 838 955 1009
4 836 838 1009 792
4 337 389 359 382
4 337 389 382 329
4 124 113 95 155
4 276 227 216 253
4 838 778 955 951
4 467 478 544 485
4 703 693 612 583
4 612 527 499 521
4 527 499 521 456
4 612 527 521 583
4 527 521 583 495
4 527 521 495 457
4 521 583 495 516
4 521 495 457 516
4 495 457 516 483
4 495 457 483 460
4 495 457 460 527
4 483 495 460 524
4 483 495 524 551
4 495 460 524 527
4 516 495 483 551
4 483 516 551 493
4 457 483 460 397
4 521 612 583 671
4 460 483 524 475
4 483 524 475 540
4 524 475 540 596
4 483 524 540 551
4 475 483 540 487
4 540 524 596 613
4 524 460 475 490
4 521 527 456 457
4 460 475 490 414
4 460 475 414 397
4 524 460 490 527
4 475 524 490 596
4 583 495 516 551
4 460 483 475 397
4 157 142 152 211
4 71 54 66 45
4 337 361 329 295
4 1069 958 882 1034
4 549 517 598 503
4 603 643 743 668
4 338 381 330 365
4 338 381 365 375
4 126 110 138 142
4 110 138 142 149
4 112 150 126 153
4 527 499 456 453
4 843 895 700 678
4 584 528 545 519
4 584 528 519 484
4 528 545 519 463
4 528 519 484 463
4 217 257 258 309
4 257 258 309 310
4 610 590 650 727
4 300 340 309 277
4 485 493 516 421
4 573 548 492 534
4 573 548 534 582
4 492 573 534 603
4 310 295 329 271
4 329 310 271 306
4 329 310 306 321
4 310 306 321 257
4 329 310 321 382
4 306 329 321 342
4 321 306 342 284
4 321 306 284 257
4 310 271 306 244
4 271 306 244 296
4 306 329 342 296
4 342 306 296 261
4 310 295 271 258
4 306 342 284 261
4 271 329 306 296
4 310 271 244 258
4 895 922 735 678
4 95 118 97 133
4 95 118 133 155
4 699 670 830 851
4 311 310 309 258
4 221 182 189 183
4 189 221 183 237
4 330 338 365 282
4 922 938 735 678
4 418 413 439 429
4 300 284 257 309
4 257 300 309 277
4 247 267 184 240
4 247 267 240 319
4 233 285 216 245
4 54 28 37 45
4 37 54 45 66
4 146 133 196 155
4 762 850 770 689
4 850 770 689 809
4 705 724 595 618
4 595 705 618 589
4 73 110 99 71
4 836 844 901 710
4 836 844 710 783
4 589 575 578 672
4 589 575 672 709
4 575 672 709 561
4 578 589 672 595
4 575 578 672 561
4 375 327 380 365
4 327 380 365 358
4 380 375 365 429
4 380 365 358 410
4 375 327 365 338
4 327 365 338 282
4 322 348 358 363
4 358 322 363 333
4 322 348 363 390
4 363 358 333 410
4 363 358 410 393
4 643 689 743 773
4 743 643 773 668
4 508 467 516 521
4 146 133 155 124
4 10 23 34 16
4 303 322 358 333
4 358 303 333 327
4 678 735 623 783
4 678 735 783 938
4 623 678 783 710
4 524 495 527 583
4 609 602 545 504
4 527 499 453 541
4 955 1000 838 951
4 244 271 296 243
4 447 428 410 393
4 447 428 393 487
4 414 397 404 460
4 404 414 460 453
4 460 404 453 457
4 460 404 457 397
4 154 125 151 106
4 390 382 387 342
4 358 333 410 365
4 358 333 365 327
4 110 138 149 117
4 493 485 434 423
4 493 485 423 421
4 485 423 421 419
4 413 418 345 333
4 483 540 487 551
4 844 901 710 751
4 844 901 751 919
4 710 844 751 678
4 751 844 919 678
4 73 96 53 84
4 24 45 53 37
4 24 45 37 28
4 955 778 900 907
4 783 930 792 836
4 340 327 350 277
4 593 721 645 695
4 172 126 138 142
4 851 716 872 699
4 277 303 340 327
4 277 303 327 282
4 133 145 143 103
4 159 129 125 104
4 689 603 743 809
4 266 298 240 277
4 524 596 613 607
4 45 53 37 73
4 527 607 541 524
4 397 350 404 408
4 82 125 106 102
4 125 106 102 151
4 82 125 102 129
4 125 102 129 151
4 106 82 102 76
4 102 106 76 97
4 106 76 97 67
4 76 102 97 118
4 76 97 67 72
4 76 97 72 95
4 72 76 95 74
4 95 72 74 89
4 72 76 74 57
4 74 72 57 89
4 97 72 95 67
4 72 76 57 67
4 76 97 95 87
4 102 106 97 118
4 95 72 89 57
4 95 72 57 67
4 76 95 74 87
4 95 74 87 89
4 74 76 87 46
4 87 74 46 78
4 87 74 78 89
4 74 76 46 57
4 76 102 118 87
4 102 118 87 115
4 102 118 115 129
4 115 102 129 94
4 102 118 129 151
4 102 118 151 106
4 129 115 94 127
4 129 115 127 174
4 118 87 115 105
4 115 102 94 87
4 102 129 94 82
4 94 102 82 46
4 115 94 127 90
4 94 129 127 104
4 127 94 104 90
4 94 129 104 125
4 94 104 90 55
4 115 94 90 87
4 127 115 90 128
4 127 115 128 174
4 104 94 125 82
4 104 94 82 55
4 115 90 128 105
4 128 115 105 140
4 90 128 105 116
4 115 105 140 118
4 140 115 118 129
4 90 127 128 120
4 127 128 120 162
4 90 127 120 84
4 128 120 162 139
4 162 128 139 198
4 128 120 139 116
4 128 90 120 116
4 139 128 116 105
4 139 128 105 140
4 127 128 162 174
4 120 127 162 131
4 115 90 105 87
4 128 139 198 140
4 94 125 82 129
4 46 74 57 78
4 82 102 76 46
4 76 87 46 102
4 106 82 76 56
4 82 76 56 46
4 76 56 46 57
4 74 78 89 57
4 882 1000 1034 832
4 423 421 419 367
4 423 421 367 397
4 423 421 397 483
4 534 582 564 620
4 564 534 620 571
4 534 620 571 603
4 564 534 571 503
4 620 564 571 655
4 571 620 655 688
4 655 571 688 598
4 571 620 688 603
4 620 655 688 751
4 655 688 751 827
4 620 655 751 710
4 655 751 710 758
4 655 751 758 827
4 710 655 758 629
4 710 655 629 564
4 655 758 629 704
4 758 710 629 778
4 688 620 751 809
4 751 688 809 827
4 564 571 655 539
4 564 571 539 503
4 571 539 503 598
4 503 571 598 569
4 503 571 569 534
4 571 598 569 688
4 571 539 598 655
4 620 564 655 710
4 751 758 827 901
4 751 758 901 710
4 534 582 620 689
4 582 564 620 678
4 620 582 678 689
4 580 597 499 548
4 541 643 603 668
4 23 8 26 21
4 26 23 21 55
4 534 573 582 689
4 138 142 149 207
4 149 138 207 178
4 149 138 178 130
4 149 138 130 117
4 130 149 117 180
4 178 149 130 180
4 178 149 180 243
4 180 178 243 190
4 180 178 190 130
4 178 243 190 194
4 190 178 194 138
4 178 190 130 138
4 178 194 138 207
4 178 194 207 243
4 194 138 207 172
4 194 138 172 188
4 207 194 172 261
4 207 149 178 243
4 138 130 117 99
4 329 339 342 296
4 329 339 296 294
4 669 664 713 762
4 669 664 762 678
4 664 713 762 850
4 84 117 131 120
4 271 244 258 193
4 364 414 404 417
4 153 112 116 99
4 569 571 688 603
4 569 571 603 534
4 188 153 193 190
4 242 244 284 261
4 298 304 319 333
4 298 304 333 282
4 670 699 716 851
4 841 832 659 724
4 832 659 724 618
4 659 724 618 646
4 659 724 646 701
4 724 646 701 792
4 745 897 872 907
4 37 24 26 53
4 26 37 53 55
4 423 493 421 483
4 182 151 163 129
4 762 664 850 689
4 762 664 689 678
4 4 18 28 14
4 980 1009 836 955
4 485 434 423 419
4 350 367 309 359
4 96 73 99 88
4 96 73 88 84
4 73 88 84 64
4 88 84 64 90
4 73 88 64 66
4 88 64 66 90
4 64 73 66 37
4 66 64 37 44
4 64 37 44 55
4 182 199 140 129
4 310 321 382 367
4 529 443 484 429
4 572 578 554 653
4 578 554 653 634
4 554 653 634 699
4 572 578 653 595
4 643 607 612 693
4 607 612 693 583
4 643 607 693 668
4 607 693 668 596
4 607 693 596 613
4 607 693 613 583
4 487 483 551 493
4 951 933 983 755
4 95 89 111 57
4 97 76 118 87
4 282 292 304 333
4 155 140 118 151
4 580 541 492 499
4 598 503 569 593
4 569 598 593 763
4 613 583 551 524
4 613 583 524 607
4 244 257 284 306
4 284 244 306 261
4 285 263 216 245
4 882 1008 1009 987
4 89 113 78 87
4 113 78 87 105
4 78 87 105 79
4 419 467 421 485
4 710 629 778 572
4 1000 951 983 833
4 983 1000 833 832
4 89 78 61 57
4 528 584 529 484
4 598 610 704 617
4 610 704 617 699
4 704 598 617 655
4 23 56 34 46
4 120 127 131 84
4 743 689 809 850
4 770 678 689 620
4 770 678 620 751
4 689 770 620 751
4 199 182 183 129
4 485 516 467 421
4 284 322 298 261
4 610 704 699 830
4 73 99 88 66
4 99 88 66 120
4 73 99 66 71
4 99 66 71 112
4 56 67 34 57
4 302 294 339 329
4 285 294 263 245
4 496 484 433 463
4 110 96 117 149
4 844 783 919 678
4 844 783 678 710
4 10 8 23 16
4 103 97 143 133
4 211 152 172 142
4 550 590 702 650
4 168 188 172 138
4 127 129 174 159
4 127 129 159 104
4 524 495 583 551
4 710 629 572 564
4 104 84 131 127
4 131 104 127 159
4 211 184 267 240
4 540 524 613 551
4 643 773 668 693
4 210 220 191 159
4 410 447 393 380
4 745 634 561 578
4 393 367 423 390
4 598 610 617 539
4 617 598 539 655
4 539 617 655 629
4 539 617 629 572
4 617 629 572 653
4 617 655 629 704
4 629 572 653 778
4 629 539 572 564
4 617 629 653 730
4 629 653 730 778
4 653 730 778 794
4 653 730 794 745
4 730 778 794 907
4 794 730 907 745
4 629 617 704 730
4 653 730 745 699
4 653 730 699 617
4 655 539 629 564
4 770 850 919 809
4 651 575 709 561
4 453 460 457 527
4 608 532 554 517
4 198 214 174 140
4 37 54 66 50
4 54 66 50 79
4 50 54 79 47
4 50 54 47 37
4 79 50 47 78
4 66 50 79 44
4 50 79 44 78
4 47 50 37 44
4 47 50 44 78
4 50 37 44 66
4 781 827 763 704
4 781 827 704 830
4 704 781 830 727
4 827 763 704 688
4 763 781 704 650
4 781 704 650 727
4 510 463 441 519
4 441 510 519 465
4 758 710 778 901
4 423 438 493 428
4 930 987 836 1009
4 321 382 367 348
4 367 321 348 309
4 365 380 429 462
4 395 381 375 429
4 395 381 429 443
4 23 8 21 16
4 172 242 240 261
4 5 10 16 8
4 475 483 487 397
4 64 66 90 44
4 242 168 240 222
4 539 617 572 554
4 704 699 830 730
4 457 516 483 421
4 23 55 56 46
4 55 56 46 82
4 23 55 46 21
4 172 209 240 222
4 295 253 263 258
4 475 490 414 466
4 414 475 466 440
4 475 466 440 505
4 414 475 440 397
4 475 490 466 558
4 466 414 440 429
4 466 440 505 429
4 669 548 664 582
4 980 836 901 900
4 188 153 190 138
4 608 634 699 554
4 138 130 99 134
4 99 138 134 153
4 138 130 134 190
4 138 134 153 190
4 257 217 277 309
4 429 439 381 413
4 595 572 599 687
4 599 595 687 646
4 687 599 646 623
4 687 599 623 710
4 687 599 710 572
4 168 172 240 222
4 955 907 951 778
4 617 610 699 554
4 519 584 484 558
4 499 580 548 492
4 554 572 653 617
4 414 380 397 440
4 414 380 440 429
4 303 298 333 282
4 721 593 763 695
4 778 836 900 901
4 303 284 298 242
4 770 919 678 751
4 207 194 261 243
4 46 55 82 94
4 651 709 686 561
4 263 302 295 329
4 951 983 833 755
4 983 833 755 832
4 284 321 257 309
4 88 96 84 117
4 84 88 117 120
4 88 96 117 99
4 88 117 120 130
4 88 117 130 99
4 117 120 130 131
4 120 88 130 99
4 130 117 131 180
4 120 130 131 162
4 120 130 162 134
4 120 130 134 99
4 827 763 688 809
4 763 688 809 603
4 46 87 78 79
4 253 216 263 193
4 688 569 603 763
4 277 303 282 298
4 277 303 298 242
4 832 841 886 724
4 128 115 140 174
4 792 623 783 687
4 483 457 421 397
4 423 382 390 367
4 423 382 367 419
4 851 872 830 699
4 872 830 699 730
4 595 705 589 672
4 441 433 417 484
4 198 216 253 193
4 453 499 492 541
4 688 620 809 689
4 688 620 689 603
4 809 688 689 603
4 620 689 603 534
4 340 350 309 277
4 758 827 901 900
4 901 758 900 778
4 778 794 907 951
4 794 907 951 897
4 794 907 897 745
4 306 244 296 261
4 414 460 453 490
4 460 453 490 527
4 222 230 209 240
4 84 88 120 90
4 321 382 348 342
4 358 410 393 380
4 886 841 701 724
4 539 503 598 517
4 266 222 277 240
4 126 152 109 142
4 758 655 827 704
4 827 758 704 830
4 76 106 56 67
4 56 76 67 57
4 457 456 453 527
4 620 809 689 751
4 699 872 730 745
4 53 37 73 64
4 53 37 64 55
4 73 53 64 84
4 381 365 375 429
4 381 365 429 413
4 475 466 505 558
4 540 475 487 505
4 713 643 612 693
4 45 71 73 66
4 120 162 139 134
4 758 900 778 730
4 900 778 730 907
4 730 900 907 872
4 907 730 872 745
4 758 900 730 830
4 129 115 174 140
4 112 116 99 66
4 664 850 689 773
4 724 618 646 595
4 608 610 517 554
4 310 321 367 309
4 310 321 309 257
4 897 794 745 797
4 745 897 797 904
4 897 797 904 794
4 797 745 904 709
4 904 797 709 933
4 904 797 933 794
4 797 745 709 672
4 709 797 672 755
4 797 745 672 794
4 672 797 794 755
4 745 709 672 561
4 797 709 933 755
4 337 310 382 367
4 492 453 541 490
4 295 271 258 263
4 295 271 263 329
4 271 263 329 296
4 443 484 429 395
4 129 174 199 140
4 162 127 174 210
4 174 162 210 198
4 162 127 210 191
4 210 162 191 180
4 153 168 126 138
4 709 767 686 745
4 217 242 277 222
4 69 66 79 116
4 382 367 348 390
4 505 466 429 484
4 705 595 572 653
4 428 410 393 363
4 602 682 545 645
4 653 634 699 745
4 653 634 745 578
4 886 701 792 724
4 886 792 987 882
4 102 94 87 46
4 510 545 463 519
4 510 545 519 593
4 833 755 832 618
4 672 589 709 755
4 524 490 596 541
4 438 423 390 428
4 88 120 90 66
4 783 678 938 919
4 298 322 333 319
4 298 322 319 316
4 298 322 316 261
4 322 319 316 363
4 316 322 363 390
4 322 319 363 333
4 46 23 21 40
4 23 21 40 16
4 21 40 16 46
4 46 23 40 34
4 23 40 34 16
4 672 589 755 705
4 162 210 198 216
4 162 210 216 200
4 162 210 200 180
4 216 162 200 190
4 210 216 200 245
4 200 210 245 180
4 245 200 180 243
4 200 180 243 190
4 200 180 190 162
4 198 162 216 193
4 200 216 190 249
4 200 216 249 245
4 249 200 245 243
4 249 200 243 190
4 243 249 190 244
4 245 249 243 294
4 249 243 294 296
4 245 249 294 263
4 249 294 263 296
4 245 249 263 216
4 249 263 216 190
4 249 263 190 271
4 249 263 271 296
4 190 249 271 244
4 249 271 244 243
4 271 190 244 193
4 249 271 243 296
4 263 190 271 193
4 162 216 193 190
4 337 359 367 382
4 37 45 73 66
4 390 382 342 348
4 240 298 319 267
4 240 298 267 261
4 393 348 390 363
4 382 387 342 329
4 443 476 429 529
4 668 607 596 541
4 375 417 395 430
4 375 417 430 414
4 417 395 430 484
4 430 375 414 429
4 430 375 429 395
4 429 430 395 484
4 429 430 484 466
4 429 430 466 414
4 430 484 466 417
4 430 466 414 417
4 134 99 153 116
4 153 134 116 193
4 134 99 116 120
4 116 134 120 139
4 116 134 139 193
4 481 510 465 503
4 370 304 333 319
4 116 99 66 120
4 40 34 16 57
4 40 34 57 46
4 57 40 46 78
4 263 216 190 193
4 66 69 112 116
4 333 365 327 282
4 646 687 623 792
4 598 569 688 763
4 743 689 850 773
4 95 124 155 133
4 441 417 465 519
4 134 153 190 193
4 162 128 198 174
4 527 607 524 583
4 490 414 466 417
4 659 724 701 841
4 71 86 73 110
4 610 704 830 727
4 704 617 699 730
4 380 440 429 462
4 440 429 462 505
4 462 440 505 447
4 462 440 447 380
4 111 95 57 67
4 319 298 316 267
4 669 678 582 664
4 322 316 261 348
4 322 316 348 390
4 645 593 695 577
4 695 645 577 619
4 577 695 619 601
4 619 577 601 531
4 619 577 531 519
4 577 531 519 465
4 619 577 519 645
4 577 601 531 569
4 577 601 569 695
4 601 619 531 668
4 695 619 601 668
4 577 519 645 593
4 531 619 519 558
4 531 619 558 668
4 593 695 577 569
4 577 593 569 503
4 601 569 695 603
4 601 569 603 520
4 603 601 520 541
4 569 603 520 534
4 520 603 541 492
4 541 520 492 490
4 601 569 520 531
4 520 601 531 541
4 603 601 541 668
4 695 601 603 743
4 601 603 743 668
4 743 601 668 695
4 520 603 492 534
4 531 520 541 490
4 577 519 593 510
4 577 519 510 465
4 646 687 792 724
4 646 687 724 595
4 794 653 745 672
4 139 162 198 193
4 466 505 558 484
4 404 457 397 421
4 397 404 421 408
4 421 397 408 350
4 53 64 84 55
4 363 370 410 333
4 363 370 333 319
4 421 408 359 367
4 517 610 598 539
4 419 359 389 382
4 716 872 699 745
4 524 596 607 541
4 529 558 505 484
4 529 558 484 584
4 827 751 901 809
4 419 421 359 367
4 130 134 190 162
4 462 476 505 429
4 476 505 429 529
4 127 131 159 191
4 104 127 90 84
4 510 545 593 602
4 306 310 244 257
4 564 620 678 710
4 778 758 730 629
4 758 730 629 704
4 127 162 131 191
4 329 321 342 382
4 836 980 955 900
4 794 653 672 705
4 440 447 380 397
4 492 520 534 503
4 833 951 755 705
4 755 833 705 618
4 271 258 263 193
4 393 397 380 447
4 316 261 267 298
4 745 897 904 767
4 584 619 558 519
4 584 619 519 645
4 118 129 151 140
4 770 919 751 809
4 423 390 428 393
4 428 423 393 487
4 390 428 393 363
4 381 330 365 413
4 84 64 90 55
4 333 330 413 365
4 333 330 365 282
4 610 617 539 554
4 882 724 886 792
4 688 655 598 704
4 593 763 695 569
4 545 593 602 645
4 397 393 423 487
4 267 261 211 240
4 688 598 763 704
4 593 577 510 465
4 704 827 688 655
4 127 174 210 159
4 16 40 57 61
4 519 531 558 484
4 519 531 484 417
4 531 558 484 466
4 261 207 211 172
4 207 211 172 142
4 549 593 510 503
4 758 827 900 830
4 440 475 505 487
4 253 258 193 263
4 770 689 809 751
4 545 584 519 645
4 139 162 193 134
4 191 210 159 127
4 569 695 603 763
4 554 653 699 617
4 90 105 87 79
4 90 105 79 116
4 531 577 569 465
4 367 350 421 408
4 40 57 61 78
4 244 188 258 193
4 188 258 193 217
4 55 46 21 44
4 46 21 44 78
4 778 653 794 705
4 794 778 705 951
4 462 410 418 365
4 686 709 745 561
4 578 653 595 672
4 578 653 672 745
4 404 414 453 417
4 484 531 466 417
4 705 755 618 589
4 55 46 44 64
4 545 593 645 519
4 462 476 429 418
4 191 131 180 162
4 475 540 596 505
4 418 413 429 365
4 951 933 755 794
4 951 933 794 897
4 569 520 531 465
4 569 520 465 503
4 569 520 503 534
4 520 531 465 490
4 520 465 503 492
4 520 465 492 490
4 465 569 503 577
4 603 743 809 695
4 370 410 333 418
4 240 242 222 277
4 56 34 46 57
4 190 134 193 162
4 705 794 951 755
4 705 794 755 672
4 490 524 527 541
4 94 87 46 90
4 47 38 28 14
4 151 182 140 129
4 413 418 333 365
4 487 483 493 423
4 350 367 359 408
4 138 142 207 172
4 342 390 348 316
4 46 55 94 90
4 66 79 116 90
4 87 46 90 79
4 242 240 261 284
4 242 240 284 298
4 242 240 298 277
4 240 284 298 261
4 797 933 794 755
4 578 672 561 745
4 393 447 487 397
4 751 620 710 678
4 190 180 130 162
4 758 704 830 730
4 440 475 487 397
4 599 710 572 564
4 599 710 564 623
4 933 897 904 794
4 492 453 490 417
4 493 423 428 487
4 792 783 836 687
4 453 541 490 527
4 901 751 919 809
4 505 529 484 429
4 987 836 1009 792
4 517 610 539 554
4 678 582 664 689
4 531 601 668 541
4 463 441 519 484
4 441 519 484 417
4 595 705 672 653
4 296 244 243 261
4 131 130 180 162
4 1009 882 987 792
4 211 172 240 261
4 194 244 261 243
4 730 900 872 830
4 90 104 84 55
4 55 46 64 90
4 46 44 64 90
4 531 519 465 417
4 66 79 90 44
4 531 558 466 490
4 466 531 490 417
4 303 327 282 333
4 294 263 296 329
4 483 516 493 421
4 623 687 710 783
4 453 414 490 417
4 348 284 342 261
4 79 44 78 46
4 90 120 116 66
4 128 198 174 140
4 380 365 410 462
4 541 531 490 596
4 763 809 695 603
4 359 367 382 419
4 778 653 705 572
4 678 623 564 710
4 531 558 490 596
4 490 475 596 558
4 483 487 397 423
4 440 505 447 487
4 447 440 487 397
4 40 16 46 61
4 333 410 365 418
4 510 465 503 593
4 429 462 418 365
4 465 531 417 490
4 596 668 541 531
4 79 44 46 90
4 44 47 78 61
4 21 44 78 61
4 16 21 46 61
4 61 40 78 46
4 78 61 46 21
4 505 475 558 596
4 417 465 490 492
4 531 558 596 668
4 503 465 577 593
4 348 342 316 261

CELL_TYPES 8485
10
10
10
10
10
10
10
10
10
10
10
10
10
10
10
10
10
10
10
10
10
10
10
10
10
10
10
10
10
10
10
10
10
10
10
10
10
10
10
10
10
10
10
10
10
10
10
10
10
10
10
10
10
10
10
10
10
10
10
10
10
10
10
10
10
10
10
10
10
10
10
10
10
10
10
10
10
10
10
10
10
10
10
10
10
10
10
10
10
10
10
10
10
10
10
10
10
10
10
10
10
10
10
10
10
10
10
10
10
10
10
10
10
10
10
10
10
10
10
10
10
10
10
10
10
10
10
10
10
10
10
10
10
10
10
10
10
10
10
10
10
10
10
10
10
10
10
10
10
10
10
10
10
10
10
10
10
10
10
10
10
10
10
10
10
10
10
10
10
10
10
10
10
10
10
10
10
10
10
10
10
10
10
10
10
10
10
10
10
10
10
10
10
10
10
10
10
10
10
10
10
10
10
10
10
10
10
10
10
10
10
10
10
10
10
10
10
10
10
10
10
10
10
10
10
10
10
10
10
10
10
10
10
10
10
10
10
10
10
10
10
10
10
10
10
10
10
10
10
10
10
10
10
10
10
10
10
10
10
10
10
10
10
10
10
10
10
10
10
10
10
10
10
10
10
10
10
10
10
10
10
10
10
10
10
10
10
10
10
10
10
10
10
10
10
10
10
10
10
10
10
10
10
10
10
10
10
10
10
10
10
10
10
10
10
10
10
10
10
10
10
10
10
10
10
10
10
10
10
10
10
10
10
10
10
10
10
10
10
10
10
10
10
10
10
10
10
10
10
10
10
10
10
10
10
10
10
10
10
10
10
10
10
10
10
10
10
10
10
10
10
10
10
10
10
10
10
10
10
10
10
10
10
10
10
10
10
10
10
10
10
10
10
10
10
10
10
10
10
10
10
10
10
10
10
10
10
10
10
10
10
10
10
10
10
10
10
10
10
10
10
10
10
10
10
10
10
10
10
10
10
10
10
10
10
10
10
10
10
10
10
10
10
10
10
10
10
10
10
10
10
10
10
10
10
10
10
10
10
10
10
10
10
10
10
10
10
10
10
10
10
10
10
10
10
10
10
10
10
10
10
10
10
10
10
10
10
10
10
10
10
10
10
10
10
10
10
10
10
10
10
10
10
10
10
10
10
10
10
10
10
10
10
10
10
10
10
10
10
10
10
10
10
10
10
10
10
10
10
10
10
10
10
10
10
10
10
10
10
10
10
10
10
10
10
10
10
10
10
10
10
10
10
10
10
10
10
10
10
10
10
10
10
10
10
10
10
10
10
10
10
10
10
10
10
10
10
10
10
10
10
10
10
10
10
10
10
10
10
10
10
10
10
10
10
10
10
10
10
10
10
10
10
10
10
10
10
10
10
10
10
10
10
10
10
10
10
10
10
10
10
10
10
10
10
10
10
10
10
10
10
10
10
10
10
10
10
10
10
10
10
10
10
10
10
10
10
10
10
10
10
10
10
10
10
10
10
10
10
10
10
10
10
10
10
10
10
10
10
10
10
10
10
10
10
10
10
10
10
10
10
10
10
10
10
10
10
10
10
10
10
10
10
10
10
10
10
10
10
10
10
10
10
10
10
10
10
10
10
10
10
10
10
10
10
10
10
10
10
10
10
10
10
10
10
10
10
10
10
10
10
10
10
10
10
10
10
10
10
10
10
10
10
10
10
10
10
10
10
10
10
10
10
10
10
10
10
10
10
10
10
10
10
10
10
10
10
10
10
10
10
10
10
10
10
10
10
10
10
10
10
10
10
10
10
10
10
10
10
10
10
10
10
10
10
10
10
10
10
10
10
10
10
10
10
10
10
10
10
10
10
10
10
10
10
10
10
10
10
10
10
10
10
10
10
10
10
10
10
10
10
10
10
10
10
10
10
10
10
10
10
10
10
10
10
10
10
10
10
10
10
10
10
10
10
10
10
10
10
10
10
10
10
10
10
10
10
10
10
10
10
10
10
10
10
10
10
10
10
10
10
10
10
10
10
10
10
10
10
10
10
10
10
10
10
10
10
10
10
10
10
10
10
10
10
10
10
10
10
10
10
10
10
10
10
10
10
10
10
10
10
10
10
10
10
10
10
10
10
10
10
10
10
10
10
10
10
10
10
10
10
10
10
10
10
10
10
10
10
10
10
10
10
10
10
10
10
10
10
10
10
10
10
10
10
10
10
10
10
10
10
10
10
10
10
10
10
10
10
10
10
10
10
10
10
10
10
10
10
10
10
10
10
10
10
10
10
10
10
10
10
10
10
10
10
10
10
10
10
10
10
10
10
10
10
10
10
10
10
10
10
10
10
10
10
10
10
10
10
10
10
10
10
10
10
10
10
10
10
10
10
10
10
10
10
10
10
10
10
10
10
10
10
10
10
10
10
10
10
10
10
10
10
10
10
10
10
10
10
10
10
10
10
10
10
10
10
10
10
10
10
10
10
10
10
10
10
10
10
10
10
10
10
10
10
10
10
10
10
10
10
10
10
10
10
10
10
10
10
10
10
10
10
10
10
10
10
10
10
10
10
10
10
10
10
10
10
10
10
10
10
10
10
10
10
10
10
10
10
10
10
10
10
10
10
10
10
10
10
10
10
10
10
10
10
10
10
10
10
10
10
10
10
10
10
10
10
10
10
10
10
10
10
10
10
10
10
10
10
10
10
10
10
10
10
10
10
10
10
10
10
10
10
10
10
10
10
10
10
10
10
10
10
10
10
10
10
10
10
10
10
10
10
10
10
10
10
10
10
10
10
10
10
10
10
10
10
10
10
10
10
10
10
10
10
10
10
10
10
10
10
10
10
10
10
10
10
10
10
10
10
10
10
10
10
10
10
10
10
10
10
10
10
10
10
10
10
10
10
10
10
10
10
10
10
10
10
10
10
10
10
10
10
10
10
10
10
10
10
10
10
10
10
10
10
10
10
10
10
10
10
10
10
10
10
10
10
10
10
10
10
10
10
10
10
10
10
10
10
10
10
10
10
10
10
10
10
10
10
10
10
10
10
10
10
10
10
10
10
10
10
10
10
10
10
10
10
10
10
10
10
10
10
10
10
10
10
10
10
10
10
10
10
10
10
10
10
10
10
10
10
10
10
10
10
10
10
10
10
10
10
10
10
10
10
10
10
10
10
10
10
10
10
10
10
10
10
10
10
10
10
10
10
10
10
10
10
10
10
10
10
10
10
10
10
10
10
10
10
10
10
10
10
10
10
10
10
10
10
10
10
10
10
10
10
10
10
10
10
10
10
10
10
10
10
10
10
10
10
10
10
10
10
10
10
10
10
10
10
10
10
10
10
10
10
10
10
10
10
10
10
10
10
10
10
10
10
10
10
10
10
10
10
10
10
10
10
10
10
10
10
10
10
10
10
10
10
10
10
10
10
10
10
10
10
10
10
10
10
10
10
10
10
10
10
10
10
10
10
10
10
10
10
10
10
10
10
10
10
10
10
10
10
10
10
10
10
10
10
10
10
10
10
10
10
10
10
10
10
10
10
10
10
10
10
10
10
10
10
10
10
10
10
10
10
10
10
10
10
10
10
10
10
10
10
10
10
10
10
10
10
10
10
10
10
10
10
10
10
10
10
10
10
10
10
10
10
10
10
10
10
10
10
10
10
10
10
10
10
10
10
10
10
10
10
10
10
10
10
10
10
10
10
10
10
10
10
10
10
10
10
10
10
10
10
10
10
10
10
10
10
10
10
10
10
10
10
10
10
10
10
10
10
10
10
10
10
10
10
10
10
10
10
10
10
10
10
10
10
10
10
10
10
10
10
10
10
10
10
10
10
10
10
10
10
10
10
10
10
10
10
10
10
10
10
10
10
10
10
10
10
10
10
10
10
10
10
10
10
10
10
10
10
10
10
10
10
10
10
10
10
10
10
10
10
10
10
10
10
10
10
10
10
10
10
10
10
10
10
10
10
10
10
10
10
10
10
10
10
10
10
10
10
10
10
10
10
10
10
10
10
10
10
10
10
10
10
10
10
10
10
10
10
10
10
10
10
10
10
10
10
10
10
10
10
10
10
10
10
10
10
10
10
10
10
10
10
10
10
10
10
10
10
10
10
10
10
10
10
10
10
10
10
10
10
10
10
10
10
10
10
10
10
10
10
10
10
10
10
10
10
10
10
10
10
10
10
10
10
10
10
10
10
10
10
10
10
10
10
10
10
10
10
10
10
10
10
10
10
10
10
10
10
10
10
10
10
10
10
10
10
10
10
10
10
10
10
10
10
10
10
10
10
10
10
10
10
10
10
10
10
10
10
10
10
10
10
10
10
10
10
10
10
10
10
10
10
10
10
10
10
10
10
10
10
10
10
10
10
10
10
10
10
10
10
10
10
10
10
10
10
10
10
10
10
10
10
10
10
10
10
10
10
10
10
10
10
10
10
10
10
10
10
10
10
10
10
10
10
10
10
10
10
10
10
10
10
10
10
10
10
10
10
10
10
10
10
10
10
10
10
10
10
10
10
10
10
10
10
10
10
10
10
10
10
10
10
10
10
10
10
10
10
10
10
10
10
10
10
10
10
10
10
10
10
10
10
10
10
10
10
10
10
10
10
10
10
10
10
10
10
10
10
10
10
10
10
10
10
10
10
10
10
10
10
10
10
10
10
10
10
10
10
10
10
10
10
10
10
10
10
10
10
10
10
10
10
10
10
10
10
10
10
10
10
10
10
10
10
10
10
10
10
10
10
10
10
10
10
10
10
10
10
10
10
10
10
10
10
10
10
10
10
10
10
10
10
10
10
10
10
10
10
10
10
10
10
10
10
10
10
10
10
10
10
10
10
10
10
10
10
10
10
10
10
10
10
10
10
10
10
10
10
10
10
10
10
10
10
10
10
10
10
10
10
10
10
10
10
10
10
10
10
10
10
10
10
10
10
10
10
10
10
10
10
10
10
10
10
10
10
10
10
10
10
10
10
10
10
10
10
10
10
10
10
10
10
10
10
10
10
10
10
10
10
10
10
10
10
10
10
10
10
10
10
10
10
10
10
10
10
10
10
10
10
10
10
10
10
10
10
10
10
10
10
10
10
10
10
10
10
10
10
10
10
10
10
10
10
10
10
10
10
10
10
10
10
10
10
10
10
10
10
10
10
10
10
10
10
10
10
10
10
10
10
10
10
10
10
10
10
10
10
10
10
10
10
10
10
10
10
10
10
10
10
10
10
10
10
10
10
10
10
10
10
10
10
10
10
10
10
10
10
10
10
10
10
10
10
10
10
10
10
10
10
10
10
10
10
10
10
10
10
10
10
10
10
10
10
10
10
10
10
10
10
10
10
10
10
10
10
10
10
10
10
10
10
10
10
10
10
10
10
10
10
10
10
10
10
10
10
10
10
10
10
10
10
10
10
10
10
10
10
10
10
10
10
10
10
10
10
10
10
10
10
10
10
10
10
10
10
10
10
10
10
10
10
10
10
10
10
10
10
10
10
10
10
10
10
10
10
10
10
10
10
10
10
10
10
10
10
10
10
10
10
10
10
10
10
10
10
10
10
10
10
10
10
10
10
10
10
10
10
10
10
10
10
10
10
10
10
10
10
10
10
10
10
10
10
10
10
10
10
10
10
10
10
10
10
10
10
10
10
10
10
10
10
10
10
10
10
10
10
10
10
10
10
10
10
10
10
10
10
10
10
10
10
10
10
10
10
10
10
10
10
10
10
10
10
10
10
10
10
10
10
10
10
10
10
10
10
10
10
10
10
10
10
10
10
10
10
10
10
10
10
10
10
10
10
10
10
10
10
10
10
10
10
10
10
10
10
10
10
10
10
10
10
10
10
10
10
10
10
10
10
10
10
10
10
10
10
10
10
10
10
10
10
10
10
10
10
10
10
10
10
10
10
10
10
10
10
10
10
10
10
10
10
10
10
10
10
10
10
10
10
10
10
10
10
10
10
10
10
10
10
10
10
10
10
10
10
10
10
10
10
10
10
10
10
10
10
10
10
10
10
10
10
10
10
10
10
10
10
10
10
10
10
10
10
10
10
10
10
10
10
10
10
10
10
10
10
10
10
10
10
10
10
10
10
10
10
10
10
10
10
10
10
10
10
10
10
10
10
10
10
10
10
10
10
10
10
10
10
10
10
10
10
10
10
10
10
10
10
10
10
10
10
10
10
10
10
10
10
10
10
10
10
10
10
10
10
10
10
10
10
10
10
10
10
10
10
10
10
10
10
10
10
10
10
10
10
10
10
10
10
10
10
10
10
10
10
10
10
10
10
10
10
10
10
10
10
10
10
10
10
10
10
10
10
10
10
10
10
10
10
10
10
10
10
10
10
10
10
10
10
10
10
10
10
10
10
10
10
10
10
10
10
10
10
10
10
10
10
10
10
10
10
10
10
10
10
10
10
10
10
10
10
10
10
10
10
10
10
10
10
10
10
10
10
10
10
10
10
10
10
10
10
10
10
10
10
10
10
10
10
10
10
10
10
10
10
10
10
10
10
10
10
10
10
10
10
10
10
10
10
10
10
10
10
10
10
10
10
10
10
10
10
10
10
10
10
10
10
10
10
10
10
10
10
10
10
10
10
10
10
10
10
10
10
10
10
10
10
10
10
10
10
10
10
10
10
10
10
10
10
10
10
10
10
10
10
10
10
10
10
10
10
10
10
10
10
10
10
10
10
10
10
10
10
10
10
10
10
10
10
10
10
10
10
10
10
10
10
10
10
10
10
10
10
10
10
10
10
10
10
10
10
10
10
10
10
10
10
10
10
10
10
10
10
10
10
10
10
10
10
10
10
10
10
10
10
10
10
10
10
10
10
10
10
10
10
10
10
10
10
10
10
10
10
10
10
10
10
10
10
10
10
10
10
10
10
10
10
10
10
10
10
10
10
10
10
10
10
10
10
10
10
10
10
10
10
10
10
10
10
10
10
10
10
10
10
10
10
10
10
10
10
10
10
10
10
10
10
10
10
10
10
10
10
10
10
10
10
10
10
10
10
10
10
10
10
10
10
10
10
10
10
10
10
10
10
10
10
10
10
10
10
10
10
10
10
10
10
10
10
10
10
10
10
10
10
10
10
10
10
10
10
10
10
10
10
10
10
10
10
10
10
10
10
10
10
10
10
10
10
10
10
10
10
10
10
10
10
10
10
10
10
10
10
10
10
10
10
10
10
10
10
10
10
10
10
10
10
10
10
10
10
10
10
10
10
10
10
10
10
10
10
10
10
10
10
10
10
10
10
10
10
10
10
10
10
10
10
10
10
10
10
10
10
10
10
10
10
10
10
10
10
10
10
10
10
10
10
10
10
10
10
10
10
10
10
10
10
10
10
10
10
10
10
10
10
10
10
10
10
10
10
10
10
10
10
10
10
10
10
10
10
10
10
10
10
10
10
10
10
10
10
10
10
10
10
10
10
10
10
10
10
10
10
10
10
10
10
10
10
10
10
10
10
10
10
10
10
10
10
10
10
10
10
10
10
10
10
10
10
10
10
10
10
10
10
10
10
10
10
10
10
10
10
10
10
10
10
10
10
10
10
10
10
10
10
10
10
10
10
10
10
10
10
10
10
10
10
10
10
10
10
10
10
10
10
10
10
10
10
10
10
10
10
10
10
10
10
10
10
10
10
10
10
10
10
10
10
10
10
10
10
10
10
10
10
10
10
10
10
10
10
10
10
10
10
10
10
10
10
10
10
10
10
10
10
10
10
10
10
10
10
10
10
10
10
10
10
10
10
10
10
10
10
10
10
10
10
10
10
10
10
10
10
10
10
10
10
10
10
10
10
10
10
10
10
10
10
10
10
10
10
10
10
10
10
10
10
10
10
10
10
10
10
10
10
10
10
10
10
10
10
10
10
10
10
10
10
10
10
10
10
10
10
10
10
10
10
10
10
10
10
10
10
10
10
10
10
10
10
10
10
10
10
10
10
10
10
10
10
10
10
10
10
10
10
10
10
10
10
10
10
10
10
10
10
10
10
10
10
10
10
10
10
10
10
10
10
10
10
10
10
10
10
10
10
10
10
10
10
10
10
10
10
10
10
10
10
10
10
10
10
10
10
10
10
10
10
10
10
10
10
10
10
10
10
10
10
10
10
10
10
10
10
10
10
10
10
10
10
10
10
10
10
10
10
10
10
10
10
10
10
10
10
10
10
10
10
10
10
10
10
10
10
10
10
10
10
10
10
10
10
10
10
10
10
10
10
10
10
10
10
10
10
10
10
10
10
10
10
10
10
10
10
10
10
10
10
10
10
10
10
10
10
10
10
10
10
10
10
10
10
10
10
10
10
10
10
10
10
10
10
10
10
10
10
10
10
10
10
10
10
10
10
10
10
10
10
10
10
10
10
10
10
10
10
10
10
10
10
10
10
10
10
10
10
10
10
10
10
10
10
10
10
10
10
10
10
10
10
10
10
10
10
10
10
10
10
10
10
10
10
10
10
10
10
10
10
10
10
10
10
10
10
10
10
10
10
10
10
10
10
10
10
10
10
10
10
10
10
10
10
10
10
10
10
10
10
10
10
10
10
10
10
10
10
10
10
10
10
10
10
10
10
10
10
10
10
10
10
10
10
10
10
10
10
10
10
10
10
10
10
10
10
10
10
10
10
10
10
10
10
10
10
10
10
10
10
10
10
10
10
10
10
10
10
10
10
10
10
10
10
10
10
10
10
10
10
10
10
10
10
10
10
10
10
10
10
10
10
10
10
10
10
10
10
10
10
10
10
10
10
10
10
10
10
10
10
10
10
10
10
10
10
10
10
10
10
10
10
10
10
10
10
10
10
10
10
10
10
10
10
10
10
10
10
10
10
10
10
10
10
10
10
10
10
10
10
10
10
10
10
10
10
10
10
10
10
10
10
10
10
10
10
10
10
10
10
10
10
10
10
10
10
10
10
10
10
10
10
10
10
10
10
10
10
10
10
10
10
10
10
10
10
10
10
10
10
10
10
10
10
10
10
10
10
10
10
10
10
10
10
10
10
10
10
10
10
10
10
10
10
10
10
10
10
10
10
10
10
10
10
10
10
10
10
10
10
10
10
10
10
10
10
10
10
10
10
10
10
10
10
10
10
10
10
10
10
10
10
10
10
10
10
10
10
10
10
10
10
10
10
10
10
10
10
10
10
10
10
10
10
10
10
10
10
10
10
10
10
10
10
10
10
10
10
10
10
10
10
10
10
10
10
10
10
10
10
10
10
10
10
10
10
10
10
10
10
10
10
10
10
10
10
10
10
10
10
10
10
10
10
10
10
10
10
10
10
10
10
10
10
10
10
10
10
10
10
10
10
10
10
10
10
10
10
10
10
10
10
10
10
10
10
10
10
10
10
10
10
10
10
10
10
10
10
10
10
10
10
10
10
10
10
10
10
10
10
10
10
10
10
10
10
10
10
10
10
10
10
10
10
10
10
10
10
10
10
10
10
10
10
10
10
10
10
10
10
10
10
10
10
10
10
10
10
10
10
10
10
10
10
10
10
10
10
10
10
10
10
10
10
10
10
10
10
10
10
10
10
10
10
10
10
10
10
10
10
10
10
10
10
10
10
10
10
10
10
10
10
10
10
10
10
10
10
10
10
10
10
10
10
10
10
10
10
10
10
10
10
10
10
10
10
10
10
10
10
10
10
10
10
10
10
10
10
10
10
10
10
10
10
10
10
10
10
10
10
10
10
10
10
10
10
10
10
10
10
10
10
10
10
10
10
10
10
10
10
10
10
10
10
10
10
10
10
10
10
10
10
10
10
10
10
10
10
10
10
10
10
10
10
10
10
10
10
10
10
10
10
10
10
10
10
10
10
10
10
10
10
10
10
10
10
10
10
10
10
10
10
10
10
10
10
10
10
10
10
10
10
10
10
10
10
10
10
10
10
10
10
10
10
10
10
10
10
10
10
10
10
10
10
10
10
10
10
10
10
10
10
10
10
10
10
10
10
10
10
10
10
10
10
10
10
10
10
10
10
10
10
10
10
10
10
10
10
10
10
10
10
10
10
10
10
10
10
10
10
10
10
10
10
10
10
10
10
10
10
10
10
10
10
10
10
10
10
10
10
10
10
10
10
10
10
10
10
10
10
10
10
10
10
10
10
10
10
10
10
10
10
10
10
10
10
10
10
10
10
10
10
10
10
10
10
10
10
10
10
10
10
10
10
10
10
10
10
10
10
10
10
10
10
10
10
10
10
10
10
10
10
10
10
10
10
10
10
10
10
10
10
10
10
10
10
10
10
10
10
10
10
10
10
10
10
10
10
10
10
10
10
10
10
10
10
10
10
10
10
10
10
10
10
10
10
10
10
10
10
10
10
10
10
10
10
10
10
10
10
10
10
10
10
10
10
10
10
10
10
10
10
10
10
10
10
10
10
10
10
10
10
10
10
10
10
10
10
10
10
10
10
10
10
10
10
10
10
10
10
10
10
10
10
10
10
10
10
10
10
10
10
10
10
10
10
10
10
10
10
10
10
10
10
10
10
10
10
10
10
10
10
10
10
10
10
10
10
10
10
10
10
10
10
10
10
10
10
10
10
10
10
10
10
10
10
10
10
10
10
10
10
10
10
10
10
10
10
10
10
10
10
10
10
10
10
10
10
10
10
10
10
10
10
10
10
10
10
10
10
10
10
10
10
10
10
10
10
10
10
10
10
10
10
10
10
10
10
10
10
10
10
10
10
10
10
10
10
10
10
10
10
10
10
10
10
10
10
10
10
10
10
10
10
10
10
10
10
10
10
10
10
10
10
10
10
10
10
10
10
10
10
10
10
10
10
10
10
10
10
10
10
10
10
10
10
10
10
10
10
10
10
10
10
10
10
10
10
10
10
10
10
10
10
10
10
10
10
10
10
10
10
10
10
10
10
10
10
10
10
10
10
10
10
10
10
10
10
10
10
10
10
10
10
10
10
10
10
10
10
10
10
10
10
10
10
10
10
10
10
10
10
10
10
10
10
10
10
10
10
10
10
10
10
10
10
10
10
10
10
10
10
10
10
10
10
10
10
10
10
10
10
10
10
10
10
10
10
10
10
10
10
10
10
10
10
10
10
10
10
10
10
10
10
10
10
10
10
10
10
10
10
10
10
10
10
10
10
10
10
10
10
10
10
10
10
10
10
10
10
10
10
10
10
10
10
10
10
10
10
10
10
10
10
10
10
10
10
10
10
10
10
10
10
10
10
10
10
10
10
10
10
10
10
10
10
10
10
10
10
10
10
10
10
10
10
10
10
10
10
10
10
10
10
10
10
10
10
10
10
10
10
10
10
10
10
10
10
10
10
10
10
10
10
10
10
10
10
10
10
10
10
10
10
10
10
10
10
10
10
10
10
10
10
10
10
10
10
10
10
10
10
10
10
10
10
10
10
10
10
10
10
10
10
10
10
10
10
10
10
10
10
10
10
10
10
10
10
10
10
10
10
10
10
10
10
10
10
10
10
10
10
10
10
10
10
10
10
10
10
10
10
10
10
10
10
10
10
10
10
10
10
10
10
10
10
10
10
10
10
10
10
10
10
10
10
10
10
10
10
10
10
10
10
10
10
10
10
10
10
10
10
10
10
10
10
10
10
10
10
10
10
10
10
10
10
10
10
10
10
10
10
10
10
10
10
10
10
10
10
10
10
10
10
10
10
10
10
10
10
10
10
10
10
10
10
10
10
10
10
10
10
10
10
10
10
10
10
10
10
10
10
10
10
10
10
10
10
10
10
10
10
10
10
10
10
10
10
10
10
10
10
10
10
10
10
10
10
10
10
10
10
10
10
10
10
10
10
10
10
10
10
10
10
10
10
10
10
10
10
10
10
10
10
10
10
10
10
10
10
10
10
10
10
10
10
10
10
10
10
10
10
10
10
10
10
10
10
10
10
10
10
10
10
10
10
10
10
10
10
10
10
10
10
10
10
10
10
10
10
10
10
10
10
10
10
10
10
10
10
10
10
10
10
10
10
10
10
10
10
10
10
10
10
10
10
10
10
10
10
10
10
10
10
10
10
10
10
10
10
10
10
10
10
10
10
10
10
10
10
10
10
10
10
10
10
10
10
10
10
10
10
10
10
10
10
10
10
10
10
10
10
10
10
10
10
10
10
10
10
10
10
10
10
10
10
10
10
10
10
10
10
10
10
10
10
10
10
10
10
10
10
10
10
10
10
10
10
10
10
10
10
10
10
10
10
10
10
10
10
10
10
10
10
10
10
10
10
10
10
10
10
10
10
10
10
10
10
10
10
10
10
10
10
10
10
10
10
10
10
10
10
10
10
10
10
10
10
10
10
10
10
10
10
10
10
10
10
10
10
10
10
10
10
10
10
10
10
10
10
10
10
10
10
10
10
10
10
10
10
10
10
10
10
10
10
10
10
10
10
10
10
10
10
10
10
10
10
10
10
10
10
10
10
10
10
10
10
10
10
10
10
10
10
10
10
10
10
10
10
10
10
10
10
10
10
10
10
10
10
10
10
10
10
10
10
10
10
10
10
10
10
10
10
10
10
10
10
10
10
10
10
10
10
10
10
10
10
10
10
10
10
10
10
10
10
10
10
10
10
10
10
10
10
10
10
10
10
10
10
10
10
10
10
10
10
10
10
10
10
10
10
10
10
10
10
10
10
10
10
10
10
10
10
10
10
10
10
10
10
10
10
10
10
10
10
10
10
10
10
10
10
10
10
10
10
10
10
10
10
10
10
10
10
10
10
10
10
10
10
10
10
10
10
10
10
10
10
10
10
10
10
10
10
10
10
10
10
10
10
10
10
10
10
10
10
10
10
10
10
10
10
10
10
10
10
10
10
10
10
10
10
10
10
10
10
10
10
10
10
10
10
10
10
10
10
10
10
10
10
10
10
10
10
10
10
10
10
10
10
10
10
10
10
10
10
10
10
10
10
10
10
10
10
10
10
10
10
10
10
10
10
10
10
10
10
10
10
10
10
10
10
10
10
10
10
10
10
10
10
10
10
10
10
10
10
10
10
10
10
10
10
10
10
10
10
10
10
10
10
10
10
10
10
10
10
10
10
10
10
10
10
10
10
10
10
10
10
10
10
10
10
10
10
10
10
10
10
10
10
10
10
10
10
10
10
10
10
10
10
10
10
10
10
10
10
10
10
10
10
10
10
10
10
10
10
10
10
10
10
10
10
10
10
10
10
10
10
10
10
10
10
10
10
10
10
10
10
10
10
10
10
10
10
10
10
10
10
10
10
10
10
10
10
10
10
10
10
10
10
10
10
10
10
10
10
10
10
10
10
10
10
10
10
10
10
10
10
10
10
10
10
10
10
10
10
10
10
10
10
10
10
10
10
10
10
10
10
10
10
10
10
10
10
10
10
10
10
10
10
10
10
10
10
10
10
10
10
10
10
10
10
10
10
10
10
10
10
10
10
10
10
10
10
10
10
10
10
10
10
10
10
10
10
10
10
10
10
10
10
10
10
10
10
10
10
10
10
10
10
10
10
10
10
10
10
10
10
10
10
10
10
10
10
10
10
10
10
10
10
10
10
10
10
10
10
10
10
10
10
10
10
10
10
10
10
10
10
10
10
10
10
10
10
10
10
10
10
10
10
10
10
10
10
10
10
10
10
10
10
10
10
10
10
10
10
10
10
10
10
10
10
10
10
10
10
10
10
10
10
10
10
10
10
10
10
10
10
10
10
10
10
10
10
10
10
10
10
10
10
10
10
10
10
10
10
10
10
10
10
10
10
10
10
10
10
10
10
10
10
10
10
10
10
10
10
10
10
10
10
10
10
10
10
10
10
10
10
10
10
10
10
10
10
10
10
10
10
10
10
10
10
10
10
10
10
10
10
10
10
10
10
10
10
10
10
10
10
10
10
10
10
10
10
10
10
10
10
10
10
10
10
10
10
10
10
10
10
10
10
10
10
10
10
10
10
10
10
10
10
10
10
10
10
10
10
10
10
10
10
10
10
10
10
10
10
10
10
10
10
10
10
10
10
10
10
10
10
10
10
10
10
10
10
10
10
10
10
10
10
10
10
10
10
10
10
10
10
10
10
10
10
10
10
10
10
10
10
10
10
10
10
10
10
10
10
10
10
10
10
10
10
10
10
10
10
10
10
10
10
10
10
10
10
10
10
10
10
10
10
10
10
10
10
10
10
10
10
10
10
10
10
10
10
10
10
10
10
10
10
10
10
10
10
10
10
10
10
10
10
10
10
10
10
10
10
10
10
10
10
10
10
10
10
10
10
10
10
10
10
10
10
10
10
10
10
10
10
10
10
10
10
10
10
10
10
10
10
10
10
10
10
10
10
10
10
10
10
10
10
10
10
10
10
10
10
10
10
10
10
10
10
10
10
10
10
10
10
10
10
10
10
10
10
10
10
10
10
10
10
10
10
10
10
10
10
10
10
10
10
10
10
10
10
10
10
10
10
10
10
10
10
10
10
10
10
10
10
10
10
10
10
10
10
10
10
10
10
10
10
10
10
10
10
10
10
10
10
10
10
10
10
10
10
10
10
10
10
10
10
10
10
10
10
10
10
10
10
10
10
10
10
10
10
10
10
10
10
10
10
10
10
10
10
10
10
10
10
10
10
10
10
10
10
10
10
10
10
10
10
10
10
10
10
10
10
10
10
10
10
10
10
10
10
10
10
10
10
10
10
10
10
10
10
10
10
10
10
10
10
10
10
10
10
10
10
10
10
10
10
10
10
10
10
10
10
10
10
10
10
10
10
10
10
10
10
10
10
10
10
10
10
10
10
10
10
10
10
10
10
10
10
10
10
10
10
10
10
10
10
10
10
10
10
10
10
10
10
10
10
10
10
10
10
10
10
10
10
10
10
10
10
10
10
10
10
10
10
10
10
10
10
10
10
10
10
10
10
10
10
10
10
10
10
10
10
10
10
10
10
10
10
10
10
10
10
10
10
10
10
10
10
10
10
10
10
10
10
10
10
10
10
10
10
10
10
10
10
10
10
10
10
10
10
10
10
10
10
10
10
10
10
10
10
10
10
10
10
10
10
10
10
10
10
10
10
10
10
10
10
10
10
10
10
10
10
10
10
10
10
10
10
10
10
10
10
10
10
10
10
10
10
10
10
10
10
10
10
10
10
10
10
10
10
10
10
10
10
10
10
10
10
10
10
10
10
10
10
10
10
10
10
10
10
10
10
10
10
10
10
10
10
10
10
10
10
10
10
10
10
10
10
10
10
10
10
10
10
10
10
10
10
10
10
10
10
10
10
10
10
10
10
10
10
10
10
10
10
10
10
10
10
10
10
10
10
10
10
10
10
10
10
10
10
10
10
10
10
10
10
10
10
10
10
10
10
10
10
10
10
10
10
10
10
10
10
10
10
10
10
10
10
10
10
10
10
10
10
10
10
10
10
10
10
10
10
10
10
10
10
10
10
10
10
10
10
10
10
10
10
10
10
10
10
10
10
10
10
10
10
10
10
10
10
10
10
10
10
10
10
10
10
10
10
10
10
10
10
10
10
10
10
10
10
10
10
10
10
10
10
10
10
10
10
10
10
10
10
10
10
10
10
10
10
10
10
10
10
10
10
10
10
10
10
10
10
10
10
10
10
10
10
10
10
10
10
10
10
10
10
10
10
10
10
10
10
10
10
10
10
10
10
10
10
10
10
10
10
10
10
10
10
10
10
10
10
10
10
10
10
10
10
10
10
10
10
10
10
10
10
10
10
10
10
10
10
10
10
10
10
10
10
10
10
10
10
10
10
10
10
10
10
10
10
10
10
10
10
10
10
10
10
10
10
10
10
10
10
10
10
10
10
10
10
10
10
10
10
10
10
10
10
10
10
10
10
10
10
10
10
10
10
10
10
10
10
10
10
10
10
10
10
10
10
10
10
10
10
10
10
10
10
10
10
10
10
10
10
10
10
10
10
10
10
10
10
10
10
10
10
10
10
10
10
10
10
10
10
10
10
10
10
10
10
10
10
10
10
10
10
10
10
10
10
10
10
10
10
10
10
10
10
10
10
10
10
10
10
10
10
10
10
10
10
10
10
10
10
10
10
10
10
10
10
10
10
10
10
10
10
10
10
10
10
10
10
10
10
10
10
10
10
10
10
10
10
10
10
10
10
10
10
10
10
10
10
10
10
10
10
10
10
10
10
10
10
10
10
10
10
10
10
10
10
10
10
10
10
10
10
10
10
10
10
10
10
10
10
10
10
10
10
10
10
10
10
10
10
10
10
10
10
10
10
10
10
10
10
10
10
10
10
10
10
10
10
10
10
10
10
10
10
10
10
10
10
10
10
10
10
10
10
10
10
10
10
10
10
10
10
10
10
10
10
10
10
10
10
10
10
10
10
10
10
10
10
10
10
10
10
10
10
10
10
10
10
10
10
10
10
10
10
10
10
10
10
10
10
10
10
10
10
10
10
10
10
10
10
10
10
10
10
10
10
10
10
10
10
10
10
10
10
10
10
10
10
10
10
10
10
10
10
10
10
10
10
10
10
10
10
10
10
10
10
10
10
10
10
10
10
10
10
10
10
10
10
10
10
10
10
10
10
10
10
10
10
10
10
10
10
10
10
10
10
10
10
10
10
10
10
10
10
10
10
10
10
10
10
10
10
10
10
10
10
10
10
10
10
10
10
10
10
10
10
10
10
10
10
10
10
10
10
10
10
10
10
10
10
10
10
10
10
10
10
10
10
10
10
10
10
10
10
10
10
10
10
10
10
10
10
10
10
10
10
10
10
10
10
10
10
10
10
10
10
10
10
10
10
10
10
10
10
10
10
10
10
10
10
10
10
10
10
10
10
10
10
10
10
10
10
10
10
10
10
10
10
10
10
10
10
10
10
10
10
10
10
10
10
10
10
10
10
10
10
10
10
10
10
10
10
10
10
10
10
10
10
10
10
10
10
10
10
10
10
10
10
10
10
10
10
10
10
10
10
10
10
10
10
10
10
10
10
10
10
10
10
10
10
10
10
10
10
10
10
10
10
10
10
10
10
10
10
10
10
10
10
10
10
10
10
10
10
10
10
10
10
10
10
10
10
10
10
10
10
10
10
10
10
10
10
10
10
10
10
10
10
10
10
10
10
10
10
10
10
10
10
10
10
10
10
10
10
10
10
10
10
10
10
10
10
10
10
10
10
10
10
10
10
10
10
10
10
10
10
10
10
10
10
10
10
10
10
10
10
10
10
10
10
10
10
10
10
10
10
10
10
10
10
10
10
10
10
10
10
10
10
10
10
10
10
10
10
10
10
10
10
10
10
10
10
10
10
10
10
10
10
10
10
10
10
10
10
10
10
10
10
10
10
10
10
10
10
10
10
10
10
10
10
10
10
10
10
10
10
10
10
10
10
10
10
10
10
10
10
10
10
10
10
10
10
10
10
10
10
10
10
10
10
10
10
10
10
10
10
10
10
10
10
10
10
10
10
10
10
10
10
10
10
10
10
10
10
10
10
10
10
10
10
10
10
10
10
10
10
10
10
10
10
10
10
10
10
10
10
10
10
10
10
10
10
10
10
10
10
10
10
10
10
10
10
10
10
10
10
10
10
10
10
10
10
10
10
10
10
10
10
10
10
10
10
10
10
10
10
10
10
10
10
10
10
10
10
10
10
10
10
10
10
10
10
10
10
10
10
10
10
10
10
10
10
10
10
10
10
10
10
10
10
10
10
10
10
10
10
10
10
10
10
10
10
10
10
10
10
10
10
10
10
10
10
10
10
10
10
10
10
10
10
10
10
10
10
10
10
10
10
10
10
10
10
10
10
10
10
10
10
10
10
10
10
10
10
10
10
10
10
10
10
10
10
10
10
10
10
10
10
10
10
10
10
10
10
10
10
10
10
10
10
10
10
10
10
10
10
10
10
10
10
10
10
10
10
10
10
10
10
10
10
10
10
10
10
10
10
10
10
10
10
10
10
10
10
10
10
10
10
10
10
10
10
10
10
10
10
10
10
10
10
10
10
10
10
10
10
10
10
10
10
10
10
10
10
10
10
10
10
10
10
10
10
10
10
10
10
10
10
10
10
10
10
10
10
10
10
10
10
10
10
10
10
10
10
10
10
10
10
10
10
10
10
10
10
10
10
10
10
10
10
10
10
10
10
10
10
10
10
10
10
10
10
10
10
10
10
10
10
10
10
10
10
10
10
10
10
10
10
10
10
10
10
10
10
10
10
10
10
10
10
10
10
10
10
10
10
10
10
10
10
10
10
10
10
10
10
10
10
10
10
10
10
10
10
10
10
10
10
10
10
10
10
10
10
10
10
10
10
10
10
10
10
10
10
10
10
10
10
10
10
10
10
10
10
10
10
10
10
10
10
10
10
10
10
10
10
10
10
10
10
10
10
10
10
10
10
10
10
10
10
10
10
10
10
10
10
10
10
10
10
10
10
10
10
10
10
10
10
10
10
10
10
10
10
10
10
10
10
10
10
10
10
10
10
10
10
10
10
10
10
10
10
10
10
10
10
10
10
10
10
10
10
10
10
10
10
10
10
10
10
10
10
10
10
10
10
10
10
10
10
10
10
10
10
10
10
10
10
10
10
10
10
10
10
10
10
10
10
10
10
10
10
10
10
10
10
10
10
10
10
10
10
10
10
10
10
10
10
10
10
10
10
10
10
10
10
10
10
10
10
10
10
10
10
10
10
10
10
10
10
10
10
10
10
10
10
10
10
10
10
10
10
10
10
10
10
10
10
10
10
10
10
10
10
10
10
10
10
10
10
10
10
10
10
10
10
10
10
10
10
10
10
10
10
10
10
10
10
10
10
10
10
10
10
10
10
10
10
10
10
10
10
10
10
10
10
10
10
10
10
10
10
10
10
10
10
10
10
10
10
10
10
10
10
10
10
10
10
10
10
10
10
10
10
10
10
10
10
10
10
10
10
10
10
10
10
10
10
10
10
10
10
10
10
10
10
10
10
10
10
10
10
10
10
10
10
10
10
10
10
10
10
10
10
10
10
10
10
10
10
10
10
10
10
10
10
10
10
10
10
10
10
10
10
10
10
10
10
10
10
10
10
10
10
10
10
10
10
10
10
10
10
10
10
10
10
10
10
10
10
10
10
10
10
10
10
10
10
10
10
10
10
10
10
10
10
10
10
10
10
10
10
10
10
10
10
10
10
10
10
10
10
10
10
10
10
10
10
10
10
10
10
10
10
10
10
10
10
10
10
10
10
10
10
10
10
10
10
10
10
10
10
10
10
10
10
10
10
10
10
10
10
10
10
POINT_DATA 2292
FIELD FieldData 12
DISPLACEMENT 3 2292  float
2.0000001e-03 0.0000000e+00 0.0000000e+00 
2.0000001e-03 0.0000000e+00 0.0000000e+00 
2.0250683e-03 3.1472080e-06 2.8970337e-06 
2.0000001e-03 0.0000000e+00 0.0000000e+00 
2.0407091e-03 2.3109944e-05 1.4420385e-05 
2.0000001e-03 0.0000000e+00 0.0000000e+00 
2.0000001e-03 0.0000000e+00 0.0000000e+00 
2.0344448e-03 9.6322829e-06 1.2707445e-05 
2.0331612e-03 -1.4712558e-05 1.0378719e-05 
2.0327957e-03 9.8920918e-06 8.6585651e-06 
2.0000001e-03 0.0000000e+00 0.0000000e+00 
2.0287007e-03 -1.4994212e-06 1.3880559e-05 
2.0473723e-03 4.0674073e-05 1.7157437e-05 
2.0000001e-03 0.0000000e+00 0.0000000e+00 
2.0000001e-03 0.0000000e+00 0.0000000e+00 
2.0324965e-03 5.3624995e-06 1.0142955e-05 
2.0000001e-03 0.0000000e+00 0.0000000e+00 
2.0222676e-03 8.2970373e-06 5.0001581e-06 
2.0179269e-03 -4.2599866e-05 1.2979493e-06 
2.0270662e-03 2.9892265e-06 3.8582302e-06 
2.0279754e-03 7.7116056e-07 7.9820929e-06 
2.0470510e-03 8.8482020e-06 1.7744429e-05 
2.0000001e-03 0.0000000e+00 0.0000000e+00 
2.0353750e-03 6.6006044e-07 4.0742325e-06 
2.0232357e-03 1.0209505e-06 2.1573542e-06 
2.0280548e-03 1.1404915e-06 6.7178362e-06 
2.0262990e-03 7.4579348e-06 5.5662886e-06 
2.0219071e-03 -2.0288864e-05 -1.5778983e-06 
2.0034402e-03 6.8896861e-06 -1.0930449e-05 
1.9496791e-03 4.4563658e-05 -3.6441560e-07 
2.0000001e-03 0.0000000e+00 0.0000000e+00 
2.0294057e-03 5.3675874e-05 7.1589943e-07 
2.0252024e-03 -4.2221347e-07 1.8474944e-06 
1.9902689e-03 2.4413219e-05 1.4085898e-06 
2.0000001e-03 0.0000000e+00 0.0000000e+00 
2.0179106e-03 6.9721978e-06 -5.0202802e-06 
2.0227635e-03 5.9074682e-07 2.9026489e-06 
2.0160624e-03 -5.0420749e-06 -8.5964979e-07 
2.0000001e-03 0.0000000e+00 0.0000000e+00 
2.0231779e-03 5.4795458e-07 -9.9356221e-06 
1.9994492e-03 7.3793308e-06 -2.7138974e-05 
2.0255365e-03 -2.8440280e-07 2.4951166e-06 
2.0137695e-03 1.7024277e-05 -1.2504466e-05 
2.0272438e-03 -2.6024973e-06 -6.5853874e-06 
2.0106575e-03 -4.0814839e-06 -3.5127632e-06 
2.0216515e-03 7.0170370e-07 -1.5928989e-06 
1.9924999e-03 9.6239382e-06 8.9336136e-06 
1.9928294e-03 1.2092865e-05 -7.7077157e-06 
2.0232396e-03 9.6605727e-06 -1.4602030e-05 
2.0255109e-03 1.1667992e-07 -5.0204346e-07 
2.0077599e-03 3.2933810e-06 -4.2375336e-06 
2.0232568e-03 4.4758789e-07 1.2720039e-06 
2.0230808e-03 4.4996187e-07 -1.3151009e-06 
2.0183504e-03 -3.6013496e-06 1.0210408e-06 
2.0145602e-03 5.9175081e-06 -5.4672200e-06 
2.0070081e-03 2.3358962e-06 9.0560889e-06 
1.9929470e-03 6.0071952e-06 -2.5188226e-06 
2.0000001e-03 0.0000000e+00 0.0000000e+00 
2.0210731e-03 1.0480587e-05 -1.1713897e-05 
2.0250864e-03 3.6760150e-06 -6.9881480e-06 
2.0258888e-03 2.3772454e-07 6.0366426e-07 
2.0000001e-03 0.0000000e+00 0.0000000e+00 
2.0254843e-03 9.8213732e-06 -1.1288482e-05 
2.0270338e-03 2.7357642e-06 -5.2845248e-06 
2.0168379e-03 -1.7675058e-06 -4.4534536e-06 
2.0261293e-03 1.8914033e-06 -1.7266210e-06 
2.0169613e-03 1.5032704e-06 -3.8947405e-06 
2.0000001e-03 0.0000000e+00 0.0000000e+00 
2.0239321e-03 1.8538539e-07 -1.7722199e-08 
2.0170463e-03 7.8680368e-06 -7.1998311e-06 
2.0228603e-03 7.3612164e-06 -8.5099982e-06 
2.0228955e-03 4.1700946e-06 -5.4604761e-06 
1.9861693e-03 1.7371411e-05 1.3719261e-05 
2.0221395e-03 1.1889445e-06 -2.3700829e-06 
2.0034595e-03 1.8905454e-05 -1.1172605e-05 
2.0245463e-03 2.1114784e-06 -1.6850533e-06 
2.0019712e-03 1.5768360e-06 -2.0481426e-07 
2.0262769e-03 1.2308012e-06 -2.4209507e-07 
1.9763510e-03 1.1179503e-05 -7.0442566e-06 
2.0052255e-03 5.3366293e-06 -8.2197121e-06 
2.0254059e-03 9.1031670e-06 -8.4118192e-06 
2.0260934e-03 3.1615325e-06 -2.0286025e-06 
2.0137399e-03 -7.3266165e-06 1.7909172e-06 
2.0266217e-03 6.4396827e-06 -5.6820845e-06 
2.0181595e-03 -1.6625497e-06 -1.4096571e-06 
2.0250189e-03 1.5702144e-06 -1.2794071e-06 
2.0251435e-03 4.8510105e-06 -4.2338220e-06 
1.9925979e-03 5.4342595e-06 3.2014702e-06 
2.0204599e-03 1.3793975e-08 -2.8178363e-06 
2.0000001e-03 0.0000000e+00 0.0000000e+00 
2.0111690e-03 3.8899921e-06 -2.3555315e-06 
2.0237220e-03 6.8528680e-06 -6.9172424e-06 
2.0250839e-03 3.2098371e-06 -2.3242453e-06 
2.0264061e-03 2.6814241e-06 -1.2513661e-06 
2.0157890e-03 -1.8979952e-06 9.5551741e-07 
1.9828849e-03 2.3121469e-05 1.1196599e-05 
2.0236555e-03 8.5104176e-07 -2.1920789e-06 
1.9358220e-03 3.7911788e-05 1.1671472e-05 
2.0255668e-03 8.0075733e-06 -6.4339320e-06 
2.0221407e-03 3.8734806e-06 -3.9039583e-06 
2.0261542e-03 4.5823494e-06 -2.5326965e-06 
2.0242298e-03 5.4886636e-06 -4.6430514e-06 
2.0172477e-03 -3.8840708e-06 -3.8194068e-07 
2.0000001e-03 0.0000000e+00 0.0000000e+00 
2.0185963e-03 -3.6793822e-06 4.4918278e-07 
2.0054735e-03 8.6739728e-06 -1.6241764e-06 
2.0602993e-03 -4.3286465e-05 -2.0898578e-05 
2.0254287e-03 3.0127992e-06 -1.9190140e-06 
2.0257083e-03 6.6099133e-06 -4.2944393e-06 
2.0251193e-03 4.5900592e-06 -3.1083578e-06 
2.0240252e-03 3.2267469e-06 -2.7363624e-06 
2.0000001e-03 0.0000000e+00 0.0000000e+00 
2.0223625e-03 7.8099065e-06 -5.5673590e-06 
1.9806386e-03 1.0682336e-05 -4.3990958e-06 
2.0242534e-03 7.0836868e-06 -5.9903391e-06 
2.0104526e-03 6.0960465e-06 -8.6437950e-08 
2.0181527e-03 6.9652228e-06 -4.1995377e-06 
2.0227626e-03 4.4439327e-07 -3.0376111e-06 
1.9920720e-03 1.7725421e-05 4.2532524e-06 
2.0261956e-03 4.1084490e-06 -1.8247227e-06 
2.0194557e-03 4.3297450e-06 -2.8875468e-06 
2.0257621e-03 5.4542329e-06 -2.7628266e-06 
2.0249712e-03 7.8153571e-06 -5.3816839e-06 
2.0249912e-03 6.7984893e-06 -4.4453432e-06 
2.0000001e-03 0.0000000e+00 0.0000000e+00 
2.0226177e-03 -2.1628686e-05 -6.6121279e-06 
2.0243623e-03 5.7616694e-06 -3.8405424e-06 
2.0194650e-03 2.0712750e-06 -2.1018557e-06 
2.0154794e-03 7.0366445e-06 -1.1129230e-06 
2.0189432e-03 -1.0585409e-06 -2.1593985e-06 
2.0224941e-03 3.5946548e-06 -3.2962200e-06 
2.0220829e-03 -5.3749892e-07 -3.2163500e-06 
2.0253782e-03 4.2329029e-06 -2.4347080e-06 
1.9936718e-03 1.7054452e-05 6.1425044e-06 
2.0221509e-03 6.2950139e-06 -3.3788303e-06 
2.0247521e-03 6.8665740e-06 -4.4714870e-06 
2.0250482e-03 7.0307397e-06 -3.7064492e-06 
2.0000001e-03 0.0000000e+00 0.0000000e+00 
2.0240413e-03 4.9450559e-06 -3.4960553e-06 
2.0183646e-03 8.4212033e-06 -1.7226412e-06 
2.0029359e-03 1.4739476e-05 4.7444178e-06 
2.0256983e-03 5.1967090e-06 -2.2613003e-06 
2.0250678e-03 4.1038561e-06 -2.9999503e-06 
2.0122402e-03 -1.9808667e-05 -2.9851753e-06 
2.0252743e-03 6.0428197e-06 -2.6985692e-06 
2.0000001e-03 0.0000000e+00 0.0000000e+00 
2.0000001e-03 0.0000000e+00 0.0000000e+00 
2.0246352e-03 7.2876860e-06 -4.1319063e-06 
2.0182871e-03 -1.6056090e-05 -9.8051187e-06 
2.0247756e-03 2.9997734e-06 -3.5618932e-06 
2.0241989e-03 6.5983031e-06 -3.8023038e-06 
2.0070656e-03 3.1674915e-06 -1.3120921e-06 
2.0248725e-03 6.1175788e-06 -3.1645247e-06 
2.0227223e-03 7.3033393e-06 -3.1743796e-06 
2.0198796e-03 -6.1929204e-06 -1.2776044e-05 
1.9977109e-03 7.2764096e-06 5.3248045e-06 
2.0246529e-03 6.5016798e-06 -3.6088177e-06 
2.0251174e-03 5.2067649e-06 -2.6496859e-06 
2.0223616e-03 -1.0509661e-05 -1.0091930e-05 
2.0253519e-03 -5.1365919e-06 -4.7665390e-06 
2.0000001e-03 0.0000000e+00 0.0000000e+00 
2.0246960e-03 6.3292409e-06 -3.4783334e-06 
2.0238548e-03 5.6052622e-06 -2.1659462e-06 
2.0215716e-03 -6.8430477e-06 -6.7688798e-06 
2.0249642e-03 5.8918918e-06 -2.3998568e-06 
2.0244613e-03 7.0036062e-06 -3.2609789e-06 
2.0239521e-03 -9.3172148e-06 -8.2993765e-06 
2.0246604e-03 6.5102995e-06 -2.6786759e-06 
2.0244799e-03 6.7396782e-06 -3.1259051e-06 
2.0000001e-03 0.0000000e+00 0.0000000e+00 
2.0000001e-03 0.0000000e+00 0.0000000e+00 
2.0131718e-03 -1.8089163e-06 5.1596076e-06 
2.0246371e-03 6.1480619e-06 -3.1512361e-06 
2.0133909e-03 1.3561053e-05 7.3004480e-06 
2.0240857e-03 5.2152432e-06 -5.3886060e-07 
2.0277405e-03 2.2252432e-05 -1.3473386e-06 
2.0000001e-03 0.0000000e+00 0.0000000e+00 
2.0199874e-03 -2.2424153e-06 -4.0890855e-06 
2.0252899e-03 5.3286522e-06 -3.2465418e-06 
2.0244785e-03 6.5733434e-06 -3.0903846e-06 
2.0262192e-03 3.4810039e-06 -4.0818086e-06 
2.0197092e-03 6.2502377e-06 -6.9083439e-06 
2.0168475e-03 5.7269958e-06 3.3877734e-06 
2.0259155e-03 1.0351558e-06 -2.9035441e-06 
2.0244597e-03 6.1550472e-06 -2.9236510e-06 
2.0245502e-03 5.8963392e-06 -2.7380286e-06 
2.0000001e-03 0.0000000e+00 0.0000000e+00 
2.0236271e-03 -5.3478761e-06 -1.1325926e-05 
2.0246296e-03 7.0971528e-06 -2.5288762e-06 
2.0260469e-03 -2.4697574e-06 -5.7674761e-06 
2.0251560e-03 6.4595174e-06 -2.6409098e-06 
2.0277591e-03 1.2849023e-06 -4.1634066e-06 
2.0274185e-03 -4.9766209e-06 -6.6473440e-06 
2.0241244e-03 8.3955692e-06 -1.0417866e-06 
2.0250543e-03 6.3193165e-06 -3.0697452e-06 
2.0156482e-03 1.2909513e-05 6.2233698e-06 
2.0096479e-03 -3.5947942e-05 -6.4009788e-07 
2.0204608e-03 -3.8589301e-06 -8.9626728e-06 
2.0225856e-03 1.1039040e-05 1.5626603e-06 
2.0221625e-03 7.7218101e-06 1.6930522e-06 
2.0264466e-03 5.7727702e-06 -2.9732614e-06 
2.0000001e-03 0.0000000e+00 0.0000000e+00 
2.0253987e-03 -8.2028273e-06 -9.6220465e-06 
2.0151008e-03 -9.5773048e-06 -3.8389944e-06 
2.0244811e-03 5.9152976e-06 -2.7615688e-06 
1.9532088e-03 1.0222057e-04 2.4697229e-05 
2.0239288e-03 6.6103494e-06 -2.5393433e-06 
2.0252869e-03 5.3969816e-06 -3.5561418e-06 
2.0240601e-03 6.3872244e-06 -2.3889736e-06 
2.0241521e-03 6.2463632e-06 -2.7113831e-06 
2.0277880e-03 5.0003446e-06 -2.5922866e-06 
2.0245106e-03 5.8412115e-06 -3.1200982e-06 
2.0287891e-03 -2.3339719e-06 -6.0381167e-06 
2.0241260e-03 -5.9878062e-06 -6.4748033e-06 
2.0208876e-03 1.2740209e-05 4.5773277e-06 
2.0084251e-03 2.6954001e-05 -1.2526351e-07 
2.0264464e-03 8.1065737e-06 -1.5962331e-06 
2.0251214e-03 6.0276247e-06 -2.1644707e-06 
2.0236785e-03 6.4936248e-06 -2.4227088e-06 
2.0269933e-03 -7.9735482e-06 -8.3023697e-06 
2.0288564e-03 1.9342613e-06 -4.1853164e-06 
2.0243095e-03 4.7317162e-06 8.7569919e-07 
2.0246916e-03 5.5650098e-06 -2.4395963e-06 
2.0241102e-03 5.9005893e-06 -2.4843980e-06 
2.0148135e-03 2.1011529e-05 9.9200433e-06 
2.0282813e-03 -8.8070459e-07 -5.5132505e-06 
2.0237162e-03 6.1437313e-06 -2.5903184e-06 
2.0270469e-03 9.3546769e-06 -1.8572955e-07 
2.0301791e-03 8.7928822e-07 -5.6734339e-06 
2.0239146e-03 1.1863987e-05 2.9951646e-06 
2.0238915e-03 5.7912816e-06 -2.2731961e-06 
2.0303582e-03 -3.1834038e-06 -6.9427765e-06 
2.0231628e-03 6.4398978e-06 -2.1498709e-06 
2.0287633e-03 7.4450627e-06 -2.4390924e-06 
2.0222061e-03 1.7220098e-05 5.8787027e-06 
2.0243258e-03 5.1248630e-06 -2.0987804e-06 
2.0231316e-03 6.5372637e-06 -2.2422460e-06 
2.0279842e-03 7.9614347e-06 -1.9295241e-07 
2.0301181e-03 2.3067735e-06 -4.3098967e-06 
2.0303894e-03 4.1939620e-06 -4.2331726e-06 
2.0241747e-03 5.8918440e-06 -2.3855409e-06 
2.0295570e-03 7.8394123e-06 -1.5220302e-06 
2.0251332e-03 6.0234961e-06 -2.0711968e-06 
2.0268774e-03 6.0775315e-06 -3.9667843e-06 
2.0259542e-03 6.8586287e-06 -2.4687438e-06 
2.0291912e-03 5.5483242e-06 -4.5401589e-06 
2.0308546e-03 3.8358467e-06 -5.3421509e-06 
2.0233323e-03 5.9626404e-06 -2.2735890e-06 
2.0318828e-03 4.1544965e-07 -6.7140545e-06 
2.0275540e-03 7.2994244e-06 -2.8822399e-06 
2.0237325e-03 5.0768299e-06 -1.7316936e-06 
2.0249814e-03 1.5255312e-05 4.8963238e-06 
2.0269712e-03 1.1355110e-05 2.1512110e-06 
2.0271048e-03 9.5138239e-06 5.4280474e-07 
2.0229695e-03 6.1941796e-06 -2.2976967e-06 
2.0230012e-03 5.7628567e-06 -1.7810895e-06 
2.0314511e-03 5.0630474e-06 -4.0683649e-06 
2.0261218e-03 6.0464386e-06 -1.4441542e-06 
2.0262206e-03 6.9671260e-06 -5.3055913e-07 
2.0292040e-03 1.1582785e-05 1.2111863e-06 
2.0224054e-03 6.1767059e-06 -1.8100443e-06 
2.0244403e-03 6.4255260e-06 -3.0740057e-06 
2.0307829e-03 7.6389788e-06 -3.5406308e-06 
2.0280571e-03 8.3395589e-06 -2.0369312e-06 
2.0256881e-03 5.2529854e-06 -1.4970577e-06 
2.0233791e-03 5.0032404e-06 -1.5229609e-06 
2.0242066e-03 4.6420605e-06 -1.5718932e-06 
2.0231809e-03 6.0008992e-06 -2.5395643e-06 
2.0221893e-03 6.3533544e-06 -1.8595957e-06 
2.0327973e-03 3.7520310e-06 -6.2887957e-06 
2.0240883e-03 4.2219758e-06 -1.3289676e-06 
2.0270494e-03 7.5516705e-06 -2.0765103e-06 
2.0230415e-03 5.4800748e-06 -1.8009088e-06 
2.0309789e-03 6.1363521e-06 -5.2103242e-06 
2.0280343e-03 1.3435362e-05 3.2642281e-06 
2.0321722e-03 7.1616432e-06 -4.0362465e-06 
2.0295423e-03 1.0623467e-05 -1.1836713e-07 
2.0256618e-03 4.2011047e-06 -1.2011944e-06 
2.0288506e-03 1.0425759e-05 1.3860030e-06 
2.0308369e-03 1.1012396e-05 -5.6133678e-07 
2.0291051e-03 9.5894738e-06 -6.4704886e-07 
2.0221001e-03 5.9542226e-06 -1.8725934e-06 
2.0246997e-03 3.6525137e-06 -1.0579907e-06 
2.0233996e-03 4.0555387e-06 -1.0323645e-06 
2.0250143e-03 5.5884079e-06 -1.7245720e-06 
2.0300795e-03 9.0862086e-06 -2.5796178e-06 
2.0327291e-03 6.2929430e-06 -5.8999590e-06 
2.0217069e-03 5.6497597e-06 -1.3249042e-06 
2.0321074e-03 8.8024017e-06 -3.8160347e-06 
2.0222841e-03 4.8106617e-06 -9.8010037e-07 
2.0296290e-03 1.2462838e-05 2.4544902e-06 
2.0306841e-03 7.7619607e-06 -4.8934880e-06 
2.0229807e-03 3.9879046e-06 -8.2501629e-07 
2.0213057e-03 6.0452753e-06 -1.4404142e-06 
2.0285707e-03 7.7028708e-06 -4.1283533e-06 
2.0284916e-03 8.1449261e-06 -7.0323381e-07 
2.0261491e-03 6.7528849e-06 -3.5028359e-06 
2.0238743e-03 3.1406855e-06 -6.6640854e-07 
2.0233407e-03 4.8427182e-06 -1.4514354e-06 
2.0296606e-03 9.2723176e-06 8.3002192e-07 
2.0262508e-03 4.4237886e-06 -8.0279744e-07 
2.0310706e-03 1.1027856e-05 -9.8395356e-07 
2.0294171e-03 8.8783827e-06 -2.8040149e-06 
2.0246918e-03 4.0797827e-06 -9.9048611e-07 
2.0223171e-03 4.3630012e-06 -8.9730315e-07 
2.0323794e-03 8.2571078e-06 -5.4828879e-06 
2.0255763e-03 6.3578614e-06 -2.0859377e-06 
2.0317754e-03 9.5827645e-06 -3.6708159e-06 
2.0213579e-03 5.5137921e-06 -1.3296185e-06 
2.0277337e-03 4.4793410e-06 -4.6680000e-07 
2.0273258e-03 6.5902100e-06 -1.1650678e-06 
2.0290508e-03 6.3790508e-06 1.3480908e-07 
2.0231586e-03 2.9098005e-06 -3.1537903e-07 
2.0302637e-03 1.1290729e-05 1.5798996e-06 
2.0222242e-03 3.6262159e-06 -3.4236265e-07 
2.0210647e-03 4.9085470e-06 -7.1481190e-07 
2.0230126e-03 5.2501273e-06 -2.0026455e-06 
2.0300823e-03 8.7181206e-06 -4.5772690e-06 
2.0292087e-03 8.8925308e-06 -1.6648299e-06 
2.0217919e-03 5.1329539e-06 -1.3327736e-06 
2.0204608e-03 5.4225552e-06 -8.6476030e-07 
2.0258769e-03 5.4698298e-06 -1.1520938e-06 
2.0232422e-03 4.4328049e-06 -1.1471292e-06 
2.0316334e-03 9.3407753e-06 -5.1175202e-06 
2.0308464e-03 1.0745232e-05 -2.9157499e-07 
2.0235241e-03 1.8628791e-06 3.3187895e-08 
2.0313018e-03 1.0182266e-05 -3.3122453e-06 
2.0257109e-03 1.5007473e-06 -2.4865733e-07 
2.0301181e-03 7.9593001e-06 7.6460969e-07 
2.0271242e-03 7.6044071e-06 -2.0734442e-06 
2.0224042e-03 2.8427175e-06 -7.8420847e-08 
2.0310129e-03 9.5820424e-06 9.9085480e-07 
2.0206529e-03 4.7291978e-06 -6.6723487e-07 
2.0227057e-03 2.9499583e-06 -2.3994414e-07 
2.0290739e-03 9.0407966e-06 -4.2021138e-06 
2.0228997e-03 1.7530696e-06 3.2816993e-07 
2.0205118e-03 4.0954992e-06 -8.4754163e-08 
2.0281055e-03 5.7627067e-06 -6.7521751e-07 
2.0242906e-03 8.0879187e-07 2.0605134e-07 
2.0269321e-03 7.8403846e-06 -3.4489594e-06 
2.0259051e-03 2.3138698e-06 -2.6357580e-07 
2.0216156e-03 2.4229353e-06 4.5546477e-07 
2.0244811e-03 6.1317965e-06 -2.2224631e-06 
2.0197537e-03 4.6050532e-06 -1.7220798e-07 
2.0282418e-03 8.3156101e-06 -2.2728370e-06 
2.0210729e-03 3.5118744e-06 -6.3326638e-08 
2.0305593e-03 1.0138115e-05 -2.9406146e-06 
2.0306474e-03 1.0008489e-05 -4.7033645e-06 
2.0241754e-03 4.0623113e-06 -7.5056494e-07 
2.0305270e-03 6.1250989e-06 5.2485080e-07 
2.0278487e-03 1.2470558e-06 -7.8886401e-08 
2.0234038e-03 7.4860850e-07 5.2464583e-07 
2.0226040e-03 1.3086574e-06 6.1488117e-07 
2.0300092e-03 7.4186028e-06 -2.6672687e-08 
2.0303645e-03 9.5057030e-06 -1.0078642e-06 
2.0311179e-03 7.9654419e-06 1.0876112e-06 
2.0281693e-03 8.9926489e-06 -3.7612060e-06 
2.0200391e-03 3.8329126e-06 6.2880211e-08 
2.0230568e-03 2.5107101e-06 -8.3605478e-08 
2.0296476e-03 2.7947065e-06 1.6355470e-07 
2.0200890e-03 3.1212737e-06 5.9420682e-07 
2.0287104e-03 7.4704567e-06 -1.1348214e-06 
2.0226608e-03 6.5779619e-07 8.6603711e-07 
2.0216897e-03 3.8854641e-06 -7.0348148e-07 
2.0268881e-03 -5.2136733e-07 1.9155122e-07 
2.0236608e-03 5.7929708e-07 5.9688983e-07 
2.0297668e-03 9.6158483e-06 -2.6822979e-06 
2.0260080e-03 2.6327243e-06 -8.6195094e-08 
2.0295584e-03 1.0052901e-05 -4.1737630e-06 
2.0216533e-03 1.0335685e-06 1.1336700e-06 
2.0205330e-03 3.2336925e-06 1.3796668e-07 
2.0191560e-03 3.6835511e-06 5.6541995e-07 
2.0232645e-03 -4.4710248e-07 9.9438000e-07 
2.0309307e-03 4.0032892e-06 5.2341034e-07 
2.0297014e-03 5.9697927e-06 -9.6557926e-09 
2.0256713e-03 -1.5172574e-06 5.7669115e-07 
2.0312637e-03 5.7994034e-06 7.4711841e-07 
2.0298765e-03 7.5737726e-06 -5.8058311e-07 
2.0269724e-03 8.2692031e-06 -3.1310051e-06 
2.0221442e-03 1.0529081e-07 1.3859845e-06 
2.0241775e-03 -1.7557470e-07 8.0918556e-07 
2.0228561e-03 -3.7631824e-07 1.3180518e-06 
2.0253169e-03 4.3834921e-06 -6.9827843e-07 
2.0197823e-03 2.0945668e-06 1.2699952e-06 
2.0195248e-03 2.8259208e-06 8.4743590e-07 
2.0225062e-03 -4.0384182e-07 1.3540550e-06 
2.0288876e-03 8.7477774e-06 -2.1357164e-06 
2.0248576e-03 6.2731324e-06 -2.0158511e-06 
2.0283586e-03 9.4515744e-06 -3.6511130e-06 
2.0276527e-03 4.6393761e-06 -4.2842331e-07 
2.0229686e-03 4.1867797e-06 -7.7943707e-07 
2.0266406e-03 5.9039035e-06 -1.3304589e-06 
2.0187360e-03 2.6268106e-06 1.3033920e-06 
2.0234780e-03 1.3553047e-06 4.5594436e-07 
2.0310350e-03 1.6327535e-06 4.7505961e-07 
2.0241772e-03 -2.1400328e-06 1.1449947e-06 
2.0208489e-03 4.5878352e-07 1.7519392e-06 
2.0258653e-03 -8.0126171e-07 6.8777780e-07 
2.0230762e-03 -1.5119389e-06 1.3840358e-06 
2.0296578e-03 3.4308550e-06 2.0256698e-07 
2.0313007e-03 3.2942908e-06 7.9939792e-07 
2.0212110e-03 -2.0621110e-07 2.0331038e-06 
2.0259463e-03 7.2135349e-06 -2.4018361e-06 
2.0196124e-03 1.0776424e-06 1.9552363e-06 
2.0287733e-03 -3.3422227e-06 5.4721738e-07 
2.0281186e-03 7.4004242e-06 -1.6368964e-06 
2.0221153e-03 -1.0842077e-06 2.0149860e-06 
2.0291517e-03 5.3514723e-06 -1.1855690e-07 
2.0300308e-03 -1.7283346e-06 5.3565731e-07 
2.0223605e-03 -1.3184120e-06 1.6992243e-06 
2.0208058e-03 1.3258797e-06 1.0719286e-06 
2.0191499e-03 1.5871768e-06 1.7298920e-06 
2.0272024e-03 8.5024321e-06 -2.8752263e-06 
2.0200445e-03 5.1678711e-07 2.0096493e-06 
2.0255051e-03 -3.0828519e-06 1.4500872e-06 
2.0185024e-03 1.5219358e-06 2.0857622e-06 
2.0229958e-03 -2.4619303e-06 1.6919080e-06 
2.0256736e-03 -4.6100686e-06 1.0759851e-06 
2.0197215e-03 6.4989479e-07 1.9781558e-06 
2.0284189e-03 1.2214506e-06 4.6976115e-07 
2.0312811e-03 -1.1165330e-06 6.2040363e-07 
2.0267779e-03 -8.4741009e-07 7.5132198e-07 
2.0315626e-03 3.9024670e-07 6.2479654e-07 
2.0244948e-03 8.6168103e-07 5.8747520e-07 
2.0295843e-03 2.3395896e-06 3.6246698e-07 
2.0248659e-03 5.5428300e-06 -1.5525353e-06 
2.0195863e-03 2.1714021e-08 2.6464311e-06 
2.0273114e-03 5.5428422e-06 -9.9954366e-07 
2.0217835e-03 1.1793979e-06 7.4475156e-07 
2.0222946e-03 -1.9844265e-06 2.4589469e-06 
2.0237402e-03 -3.2200014e-06 2.2841234e-06 
2.0220103e-03 -2.0361906e-06 1.9862202e-06 
2.0191025e-03 5.4324647e-07 2.4248095e-06 
2.0235069e-03 -3.2514824e-06 2.1876335e-06 
2.0256294e-03 2.5302691e-06 -4.7138336e-08 
2.0260441e-03 6.9268149e-06 -2.0850264e-06 
2.0211465e-03 -1.3769492e-06 2.8021082e-06 
2.0294115e-03 -2.3942328e-06 8.7741256e-07 
2.0231926e-03 2.9735684e-06 -2.9495720e-07 
2.0208498e-03 -1.3001921e-06 2.8609657e-06 
2.0227216e-03 -2.1610363e-06 2.2897282e-06 
2.0241525e-03 -4.3233877e-06 1.6179371e-06 
2.0219972e-03 -2.3565663e-06 2.7823091e-06 
2.0215595e-03 -2.0732796e-06 3.0162771e-06 
2.0227123e-03 -3.2215148e-06 1.8574135e-06 
2.0184040e-03 4.2324370e-07 2.8585671e-06 
2.0315107e-03 -3.4181999e-06 5.9185777e-07 
2.0210845e-03 -5.8601256e-07 1.8810435e-06 
2.0300765e-03 -1.8709848e-06 8.0040013e-07 
2.0216093e-03 -2.0713655e-06 2.8606557e-06 
2.0316956e-03 -2.4211856e-06 7.3169065e-07 
2.0266920e-03 3.6755680e-06 -3.2174125e-07 
2.0196748e-03 -8.5000812e-07 3.3284161e-06 
2.0289589e-03 -7.1022782e-06 8.0627569e-07 
2.0240701e-03 3.6764136e-06 -6.5571749e-07 
2.0216943e-03 -2.5305649e-06 2.1389985e-06 
2.0306199e-03 -6.4219362e-06 5.9063785e-07 
2.0283137e-03 -4.8333900e-06 1.3280392e-06 
2.0290515e-03 -5.9853892e-07 7.8516592e-07 
2.0191504e-03 -5.9421507e-07 3.2561475e-06 
2.0271929e-03 -5.7961702e-06 1.7675573e-06 
2.0251297e-03 4.9727068e-06 -1.1769848e-06 
2.0206615e-03 -1.5248346e-06 2.7529616e-06 
2.0222126e-03 -2.9331618e-06 2.8912052e-06 
2.0223542e-03 -3.7156772e-06 1.9209335e-06 
2.0259381e-03 -7.2987064e-06 1.2000924e-06 
2.0236853e-03 -4.5259299e-06 3.1221605e-06 
2.0286124e-03 -4.1974276e-06 1.3329394e-06 
2.0317633e-03 -6.1138044e-06 5.9376913e-07 
2.0185143e-03 -5.8423109e-07 3.6611559e-06 
2.0198810e-03 -1.6699297e-06 3.9507290e-06 
2.0263356e-03 1.3288997e-06 4.1992860e-07 
2.0212859e-03 -2.7841154e-06 2.0574580e-06 
2.0321258e-03 -5.4807247e-06 6.0199574e-07 
2.0234648e-03 1.5368653e-06 4.1820681e-07 
2.0240808e-03 -5.1516304e-06 3.0079195e-06 
2.0200727e-03 -2.0933846e-06 3.8680159e-06 
2.0193714e-03 -1.5905827e-06 4.0931272e-06 
2.0296462e-03 -4.0187433e-06 1.2312591e-06 
2.0244105e-03 2.8404952e-06 -1.2816166e-07 
2.0220908e-03 -3.4277575e-06 3.2449207e-06 
2.0232503e-03 -5.6827243e-06 1.4517766e-06 
2.0218526e-03 -4.1271032e-06 1.7064409e-06 
2.0248815e-03 -5.0035596e-06 2.6410228e-06 
2.0231286e-03 -4.6998980e-06 3.8209350e-06 
2.0251016e-03 -2.0483669e-06 1.5631243e-06 
2.0213809e-03 -2.7685944e-06 3.7858520e-06 
2.0218308e-03 -3.1909299e-06 2.7303001e-06 
2.0205439e-03 -2.7257561e-06 1.7631544e-06 
2.0322215e-03 -8.7127455e-06 5.4359458e-07 
2.0260173e-03 -7.3626002e-06 3.1690290e-06 
2.0187509e-03 -1.4809970e-06 4.4515564e-06 
2.0291423e-03 -1.0073486e-05 8.8149778e-07 
2.0225598e-03 -1.7700384e-06 1.9211684e-06 
2.0201427e-03 -2.3353994e-06 4.5475208e-06 
2.0277051e-03 -7.2650932e-06 2.3398024e-06 
2.0214235e-03 -3.4985071e-06 4.4782273e-06 
2.0260883e-03 -1.0409360e-06 1.2024067e-06 
2.0325328e-03 -8.3985897e-06 5.7320568e-07 
2.0311715e-03 -1.0736730e-05 6.5190159e-07 
2.0211004e-03 -4.2474167e-06 1.4842034e-06 
2.0196908e-03 -2.5163731e-06 4.8602606e-06 
2.0232059e-03 -1.1263737e-06 1.4582002e-06 
2.0254517e-03 -8.6295713e-06 1.0788759e-06 
2.0218848e-03 -3.6608944e-06 3.3107772e-06 
2.0212394e-03 -4.2532051e-06 4.5883453e-06 
2.0239386e-03 2.5448577e-07 8.3768219e-07 
2.0197378e-03 -2.2307079e-06 1.1982341e-06 
2.0302469e-03 -8.3234518e-06 1.6094547e-06 
2.0213714e-03 -2.9297573e-06 3.9283586e-06 
2.0236275e-03 -5.6430886e-06 3.6140641e-06 
2.0327356e-03 -1.1179300e-05 5.2804097e-07 
2.0203902e-03 -2.8364545e-06 5.0458152e-06 
2.0295081e-03 -7.2520215e-06 1.8129655e-06 
2.0200992e-03 -3.9606357e-06 8.2826756e-07 
2.0190938e-03 -2.2510844e-06 5.1869088e-06 
2.0261952e-03 -6.3623515e-06 2.7475342e-06 
2.0216731e-03 -6.5698473e-06 1.0686185e-06 
2.0261381e-03 -3.6439837e-06 1.9315219e-06 
2.0233956e-03 -5.7365219e-06 4.6139958e-06 
2.0270192e-03 -9.4241095e-06 2.9337227e-06 
2.0294813e-03 -9.8519240e-06 2.2923466e-06 
2.0185292e-03 -1.1471529e-06 3.2776720e-07 
2.0332446e-03 -1.1167471e-05 6.4314236e-07 
2.0256650e-03 -8.2822153e-06 3.8887651e-06 
2.0211558e-03 -2.7933490e-06 3.8050139e-06 
2.0231088e-03 -3.3580197e-06 2.4163460e-06 
2.0291051e-03 -1.0607391e-05 2.6012067e-06 
2.0218680e-03 -4.3442569e-06 5.2897340e-06 
2.0208370e-03 -4.1881863e-06 5.4334973e-06 
2.0215362e-03 -3.6010681e-06 3.2878481e-06 
2.0248631e-03 -7.7219747e-06 4.6166788e-06 
2.0185811e-03 -2.8660902e-06 6.8745527e-07 
2.0200948e-03 -3.3353344e-06 5.5660867e-06 
2.0283891e-03 -1.2309651e-05 5.1771485e-07 
2.0237505e-03 -2.3985997e-06 1.8486280e-06 
2.0164053e-03 1.3485987e-06 -8.8623398e-07 
2.0207136e-03 -3.0533006e-06 5.4692809e-06 
2.0332288e-03 -1.3505664e-05 2.6986663e-07 
2.0232489e-03 -9.4116267e-06 6.7007772e-07 
2.0226969e-03 -6.7799065e-06 4.6172181e-06 
2.0281414e-03 -1.1042220e-05 3.3386468e-06 
2.0195099e-03 -2.8399529e-06 5.8508926e-06 
2.0160568e-03 9.7542954e-07 -4.2324652e-07 
2.0263938e-03 -6.1825240e-06 2.6570574e-06 
2.0223402e-03 -4.4235967e-06 5.1153265e-06 
2.0154542e-03 9.6255935e-06 -6.4273854e-06 
2.0337545e-03 -1.3893615e-05 1.3583511e-07 
2.0311405e-03 -1.4679977e-05 -1.9276488e-08 
2.0228345e-03 -5.8977748e-06 3.2153164e-06 
2.0211113e-03 -3.5585638e-06 3.0090252e-06 
2.0231102e-03 -6.7771912e-06 4.0571858e-06 
2.0300923e-03 -1.0584743e-05 2.4287870e-06 
2.0157674e-03 8.4508192e-06 -4.3141699e-06 
2.0193085e-03 -6.5715558e-06 2.3227835e-06 
2.0124763e-03 1.9023144e-05 -2.6179812e-08 
2.0233598e-03 -5.9192475e-06 3.3260756e-06 
2.0205895e-03 -3.8623480e-06 6.2651670e-06 
2.0223418e-03 -6.8148593e-06 6.0745328e-06 
2.0627920e-03 7.9030498e-05 -2.7911106e-05 
2.0207216e-03 -2.3666366e-06 3.8980829e-06 
2.0252548e-03 1.4955960e-05 -2.0564860e-06 
2.0209961e-03 -3.1148179e-06 5.8020346e-06 
2.0000001e-03 0.0000000e+00 0.0000000e+00 
2.0258906e-03 -1.3142569e-05 4.3710460e-07 
2.0319792e-03 -1.3545778e-05 1.8842309e-06 
2.0331426e-03 -1.5367228e-05 -6.3178391e-08 
2.0000001e-03 0.0000000e+00 0.0000000e+00 
2.0238520e-03 -5.1185912e-06 2.8734953e-06 
2.0259724e-03 -9.3439203e-06 3.9372694e-06 
2.0318287e-03 -1.3315253e-05 2.0721425e-06 
2.0264874e-03 -1.0679644e-05 2.2840863e-06 
2.0179583e-03 -7.7131290e-06 -3.5388069e-07 
2.0296883e-03 -1.3325147e-05 2.4651899e-06 
2.0199835e-03 -3.1168963e-06 6.4509413e-06 
2.0000001e-03 0.0000000e+00 0.0000000e+00 
2.0269062e-03 -8.7164135e-06 3.4556222e-06 
2.0247463e-03 -7.7224104e-06 5.4694224e-06 
2.0626434e-03 -3.1367097e-05 9.3329718e-06 
2.0343529e-03 -1.6142452e-05 -9.6279081e-08 
2.0306262e-03 -1.3857085e-05 2.8844461e-06 
2.0197053e-03 -1.4434549e-06 3.2292887e-06 
2.0298206e-03 -1.6835440e-05 -6.1085615e-07 
2.0271358e-03 -1.1038966e-05 4.2477968e-06 
2.0219944e-03 -5.5629234e-06 6.8408563e-06 
2.0211327e-03 -2.9216865e-06 5.9677477e-06 
2.0211262e-03 -4.0873424e-06 6.8485379e-06 
2.0331757e-03 -1.6995580e-05 -5.0303822e-07 
2.0238927e-03 -8.3661007e-06 4.3716973e-06 
2.0000001e-03 0.0000000e+00 0.0000000e+00 
2.0198477e-03 -2.2478418e-06 2.8340360e-06 
2.0151860e-03 1.4961026e-06 -1.3480279e-07 
2.0243148e-03 -7.8193734e-06 3.8670464e-06 
2.0237216e-03 -6.4349306e-06 5.4606994e-06 
2.0139308e-03 1.0367396e-06 -1.0173577e-06 
2.0215041e-03 2.0431787e-06 -1.9766142e-06 
2.0242939e-03 -9.7708489e-06 6.2024906e-06 
2.0326742e-03 -1.5847561e-05 1.8800176e-06 
2.0246620e-03 -8.1288890e-06 3.7141465e-06 
2.0246059e-03 -1.3001124e-05 1.9288095e-06 
2.0204496e-03 -3.1934496e-06 6.9699768e-06 
2.0260683e-03 -9.9464241e-06 5.6986901e-06 
2.0221842e-03 -4.0124264e-06 5.3597896e-06 
2.0277819e-03 -1.1500591e-05 4.6797454e-06 
2.0276476e-03 -1.1026236e-05 4.1075291e-06 
2.0346048e-03 -1.7980527e-05 -6.1256787e-07 
2.0181972e-03 -1.4715489e-07 2.3917628e-06 
2.0277749e-03 -1.2513854e-05 5.1572165e-06 
2.0189157e-03 -2.5711872e-06 2.5019715e-06 
2.0211467e-03 -2.6361949e-06 6.0966477e-06 
2.0215472e-03 -5.3791773e-06 3.0759436e-06 
2.0325952e-03 -1.8419947e-05 -9.7640236e-07 
2.0299645e-03 -1.4191951e-05 4.1527196e-06 
2.0246916e-03 -1.0795312e-05 5.8136952e-06 
2.0059585e-03 -1.9412284e-05 3.0243857e-06 
2.0215854e-03 -4.1887238e-06 7.2750995e-06 
2.0000001e-03 0.0000000e+00 0.0000000e+00 
2.0219693e-03 -8.0189675e-06 2.3356424e-06 
2.0000001e-03 0.0000000e+00 0.0000000e+00 
2.0238366e-03 -8.1152730e-06 7.3198048e-06 
2.0285421e-03 -1.3090406e-05 2.5723423e-06 
2.0246885e-03 -1.0709782e-05 5.2372429e-06 
2.0323817e-03 -1.6245709e-05 2.9249986e-06 
2.0267125e-03 -2.5578136e-05 -1.5939572e-06 
2.0331575e-03 -1.7374439e-05 1.7360962e-06 
2.0345550e-03 -1.9575016e-05 -1.2247058e-06 
2.0208273e-03 -3.0147169e-06 7.3179308e-06 
2.0309091e-03 -1.9851663e-05 -2.2173026e-06 
2.0250231e-03 -1.0360216e-05 4.8587808e-06 
2.0218205e-03 -9.0962503e-06 8.8733918e-07 
2.0209595e-03 -2.0481132e-06 5.9536151e-06 
-2.2651388e-18 1.2017551e-18 2.7942207e-18 
2.0285875e-03 -1.3268974e-05 4.7446006e-06 
-2.9625980e-18 -7.0964141e-20 4.5333989e-18 
2.0146701e-03 1.5437964e-06 1.5572517e-06 
-1.3244989e-18 -1.7855361e-18 4.7677520e-18 
2.0128188e-03 -7.1047593e-06 2.5571246e-06 
1.2616468e-19 -2.3391255e-18 4.1272094e-18 
-7.7746080e-19 -8.4259130e-19 2.8718501e-18 
6.1475706e-19 -1.1892136e-18 3.6016639e-18 
-1.0621659e-18 8.3355197e-19 2.5249636e-18 
-2.2438155e-18 6.5969198e-20 5.1391172e-18 
-2.3233061e-19 1.1802747e-19 3.2409034e-18 
2.0290599e-03 -1.3656756e-05 5.4718512e-06 
6.9917524e-19 1.3430246e-18 -1.8334089e-19 
2.0231195e-03 -5.9558788e-06 7.6812621e-06 
2.0434961e-03 -6.6648958e-05 -1.0430287e-05 
2.0219514e-03 -4.0268237e-06 7.6046808e-06 
-2.0406324e-18 9.2847911e-19 3.6671572e-18 
2.0299363e-03 -2.0524267e-05 -1.3176465e-06 
2.0226527e-03 -4.7560147e-06 5.3652707e-06 
2.0000001e-03 0.0000000e+00 0.0000000e+00 
-3.9048958e-19 8.9255125e-19 4.0125969e-18 
2.0188843e-03 -1.4080829e-05 -4.0061705e-06 
-5.4041550e-19 -1.1059740e-19 1.5717345e-18 
2.0258820e-03 -1.0650965e-05 2.7790672e-06 
2.0341333e-03 -2.0553094e-05 -1.7364816e-06 
-3.8214462e-19 1.3374561e-18 4.1657746e-18 
-2.9097758e-19 -1.6925260e-18 2.9951954e-18 
2.0000001e-03 0.0000000e+00 0.0000000e+00 
-2.9141798e-18 9.7377584e-19 2.0413819e-18 
2.0205949e-03 -1.3084353e-06 5.6790623e-06 
2.0220333e-03 -3.3188837e-06 6.1913793e-06 
2.0257619e-03 -1.2699208e-05 6.2057211e-06 
2.0315442e-03 -1.6141712e-05 3.8332946e-06 
2.0335778e-03 -1.8084414e-05 2.6703699e-06 
-4.9961192e-19 -4.9162022e-19 1.8836104e-18 
2.0210773e-03 -2.6619869e-06 7.6029110e-06 
2.0259148e-03 -1.1801236e-05 7.2922539e-06 
2.0336856e-03 -1.8432462e-05 1.3716322e-06 
2.0198044e-03 -2.1138983e-06 3.8588955e-06 
2.0295943e-03 -1.5205551e-05 5.1309066e-06 
2.0120719e-03 3.8891834e-05 -1.2003799e-05 
2.0260399e-03 -1.2781640e-05 5.7912675e-06 
-3.1648929e-18 1.6630653e-18 5.2264818e-19 
-5.7426027e-19 1.5224097e-18 3.1132522e-18 
2.0276497e-03 -1.8331975e-05 5.0280971e-07 
-2.7834739e-18 3.2842939e-18 2.7480863e-18 
2.0312660e-03 -1.8407614e-05 1.2025669e-06 
-2.3380541e-18 -7.2333778e-21 2.5369007e-18 
-5.1744273e-19 -5.6149677e-19 2.3701984e-18 
-1.3518990e-19 2.1414902e-18 3.3574310e-18 
2.0221749e-03 -3.8012572e-06 7.7656678e-06 
2.0326653e-03 -2.0261259e-05 -1.6194465e-06 
2.0200266e-03 -5.1722731e-07 5.2089026e-06 
-1.7993949e-18 5.5659293e-19 1.3126818e-18 
2.0122014e-03 -8.1036078e-06 2.1640237e-06 
2.0292837e-03 -1.4458928e-05 2.3740934e-06 
2.0274653e-03 -1.0489292e-05 5.1135262e-06 
2.0301268e-03 -1.3987613e-05 5.2482023e-06 
-1.0584632e-18 -5.0487475e-19 2.5311857e-18 
-4.0747695e-18 5.8926837e-19 1.8907756e-18 
2.0343470e-03 -1.9221874e-05 2.2580612e-06 
2.0268213e-03 -1.3881318e-05 7.1376021e-06 
2.0203018e-03 -1.4785609e-05 -1.0638537e-06 
2.0252662e-03 -8.4824560e-06 7.8203784e-06 
-3.5164292e-18 8.4373550e-19 1.3761322e-18 
2.0000001e-03 0.0000000e+00 0.0000000e+00 
2.0211728e-03 -2.0077707e-06 7.6200790e-06 
2.0205823e-03 -4.8095467e-06 3.7119582e-06 
2.0335549e-03 -1.9374052e-05 8.0824134e-07 
2.0087634e-03 -7.5504495e-06 -4.6385274e-08 
2.0214499e-03 -2.2445943e-06 6.1672349e-06 
2.0269405e-03 -1.4463285e-05 6.8364016e-06 
2.0237027e-03 -7.2748439e-06 4.5775469e-06 
2.0199777e-03 2.7767167e-06 -1.3551941e-05 
2.0184922e-03 1.2104676e-08 2.7081235e-06 
2.0000001e-03 0.0000000e+00 0.0000000e+00 
-1.4390971e-18 6.7259653e-19 3.4248237e-18 
2.0000001e-03 0.0000000e+00 0.0000000e+00 
2.0256324e-03 -1.1376454e-05 2.1814208e-06 
-1.8471723e-18 1.2665182e-19 3.8208746e-18 
2.0292394e-03 -1.8006418e-05 -8.6754923e-08 
2.0310441e-03 -1.6443651e-05 5.7397119e-06 
2.0194070e-03 -8.8353111e-08 4.4276585e-06 
-1.7664004e-18 1.2540750e-18 2.3361111e-18 
2.0166601e-03 -1.0122287e-06 -1.1635353e-06 
-1.3167228e-18 1.3495566e-18 4.5802525e-18 
2.0308152e-03 -1.6799320e-05 5.6426297e-06 
8.8852303e-20 -6.3459694e-19 1.7081246e-18 
-9.9634122e-19 -1.5421666e-18 2.8928324e-18 
2.0236131e-03 -5.3482308e-06 7.8982139e-06 
2.0221455e-03 -3.1178470e-06 7.7507166e-06 
-2.5385931e-18 9.5209946e-19 2.8087557e-18 
1.9978164e-03 2.8298493e-05 1.0637849e-06 
-7.3352681e-19 6.7699615e-19 2.6430189e-18 
2.0272101e-03 -1.4933641e-05 6.6100915e-06 
2.0213726e-03 -2.3497382e-06 5.6431086e-06 
-3.2068521e-18 1.3570717e-18 1.7703555e-18 
2.0233507e-03 -1.2717484e-05 1.2853819e-06 
2.0210571e-03 -1.4073621e-05 1.9554645e-06 
2.8366603e-19 -9.5267063e-19 1.4556492e-18 
2.0170987e-03 -4.6249420e-07 1.3104400e-07 
-6.4439200e-19 2.0177704e-18 1.1341309e-18 
3.0910292e-19 -6.4994414e-19 1.5669190e-18 
2.0325752e-03 -1.8423996e-05 -5.7067574e-08 
2.0210233e-03 -1.1609212e-06 7.5446201e-06 
1.3995000e-19 -7.7914587e-19 2.8370634e-18 
-3.5285126e-18 2.2901575e-18 5.9379000e-19 
-4.0522155e-18 2.8293713e-18 2.8621912e-19 
2.0131953e-03 -2.8594988e-07 7.2822110e-07 
-2.0777682e-19 -4.1826848e-19 3.7772359e-18 
7.8557827e-20 -1.7353583e-18 2.1325479e-18 
2.0278189e-03 -1.2268072e-05 7.9976489e-06 
2.0282611e-03 -1.5934855e-05 7.4647742e-06 
2.0084579e-03 6.2344006e-06 -7.6286424e-06 
-2.0943110e-20 2.2392724e-18 1.0889632e-18 
2.0455651e-03 5.8292728e-05 2.9457004e-05 
-1.5715004e-18 1.7705849e-18 8.9033802e-19 
2.0349177e-03 -2.0152405e-05 2.2484617e-06 
-3.3928167e-18 1.2905664e-18 1.4202014e-18 
2.0285640e-03 -1.0954495e-05 4.1328558e-06 
2.0320725e-03 -1.8165500e-05 5.9219965e-06 
2.0220666e-03 -2.4377980e-06 7.5728590e-06 
2.0000001e-03 0.0000000e+00 0.0000000e+00 
2.0000001e-03 0.0000000e+00 0.0000000e+00 
2.0303449e-03 -1.6496362e-05 2.2937365e-07 
4.3395880e-19 -7.7418682e-19 1.8675947e-18 
2.0243120e-03 -9.1569345e-06 2.7376648e-06 
-1.8519177e-19 1.0785651e-18 3.1807870e-18 
2.0179264e-03 -1.7368402e-06 -6.9101907e-07 
-1.5793207e-19 -7.3702206e-19 1.7319469e-18 
2.0332271e-03 -1.7727800e-05 4.4385379e-06 
2.0259104e-03 -8.2114930e-06 7.6663582e-06 
2.0206699e-03 -2.1832311e-07 7.2791822e-06 
2.0285877e-03 -1.6675214e-05 7.3048755e-06 
-1.3713044e-18 2.5558351e-18 1.5011548e-18 
2.0000001e-03 0.0000000e+00 0.0000000e+00 
-1.0059257e-18 1.2117358e-18 2.0619427e-18 
-6.4903321e-19 -1.1332775e-18 2.5564482e-18 
2.0319275e-03 -1.5806107e-05 4.4405529e-06 
2.0168612e-03 -5.8877586e-06 2.4337376e-06 
2.0165057e-03 -2.7447302e-06 -1.8191586e-06 
2.0293714e-03 -1.5179845e-05 7.9368665e-06 
-1.4600279e-18 1.8816924e-18 1.5220880e-18 
-1.5802951e-18 2.9375520e-18 2.9731258e-18 
-3.1951721e-18 2.8268050e-18 8.0399510e-19 
8.5880331e-19 5.2152269e-19 6.6531305e-19 
2.0196368e-03 -6.7856945e-06 3.1753194e-07 
-1.8002099e-18 9.7302424e-19 2.8522040e-18 
-3.3555722e-20 -1.1112604e-18 2.3799576e-18 
2.0237360e-03 -4.7606081e-06 7.3471965e-06 
2.0069906e-03 -7.7444165e-06 8.7584959e-07 
2.0301798e-03 -1.4135780e-05 1.2402372e-06 
2.0344716e-03 -1.9668942e-05 1.4524520e-06 
2.0216561e-03 -1.7629243e-06 7.2273956e-06 
-2.7469839e-18 1.8721744e-18 -2.7105549e-20 
6.1578282e-19 1.3974936e-18 3.1863920e-18 
-5.7963234e-19 1.2082331e-18 2.0876781e-18 
-1.4144834e-18 -2.1275958e-19 1.9542880e-18 
-1.0617617e-18 -9.6568580e-19 1.7296566e-18 
2.0332863e-03 -1.9030376e-05 6.1319888e-06 
2.0306271e-03 -1.3588729e-05 -2.0517871e-06 
2.0296539e-03 -1.7129418e-05 7.8290495e-06 
1.9827206e-03 -1.3711287e-05 9.5699288e-06 
2.0000001e-03 0.0000000e+00 0.0000000e+00 
2.0203267e-03 6.6230177e-07 6.6146954e-06 
2.0749178e-03 5.5609389e-06 -1.8085129e-05 
-1.6533459e-18 1.2535317e-18 1.9706867e-18 
5.0368971e-19 -1.2332676e-18 2.0828081e-18 
-2.7341582e-18 2.0476095e-18 1.6356869e-18 
-3.3051102e-18 1.1808545e-18 1.5327506e-18 
-2.1717883e-18 2.3103444e-18 2.0979439e-18 
-2.1938832e-18 2.4703859e-18 1.2712727e-18 
-1.8478359e-18 2.4274461e-18 9.3568582e-19 
2.0273109e-03 -1.6102216e-05 4.5581186e-07 
-1.7385448e-18 2.1897820e-18 9.2486072e-19 
-3.2628272e-18 1.8995498e-18 -6.4292717e-19 
-9.5244884e-19 1.5125895e-18 9.3539031e-19 
2.0289712e-03 -1.1250686e-05 7.7139848e-06 
2.0212254e-03 -6.6083828e-07 6.4813848e-06 
-2.8366709e-18 1.8490427e-19 3.5029315e-19 
5.8489145e-19 -3.5129435e-19 1.1781205e-18 
2.0300488e-03 -1.8156106e-05 7.8206476e-06 
2.0110307e-03 -8.0988330e-06 1.9261190e-06 
-2.2903810e-18 2.1558128e-18 1.9539896e-18 
-3.2174549e-18 2.3818430e-18 1.4610729e-18 
2.0197979e-03 1.9473059e-06 5.4768389e-06 
2.0328693e-03 -1.7585318e-05 1.0605792e-06 
2.0899213e-19 1.4014868e-18 2.9516149e-18 
-7.9984540e-19 1.1549962e-18 2.5335767e-18 
-2.6453542e-18 2.6569840e-18 6.8221814e-19 
4.5387359e-19 4.6189491e-20 2.1565333e-18 
-1.7200140e-18 1.3544910e-18 1.4399388e-18 
-1.5256392e-18 1.4226169e-18 1.5391743e-18 
-9.8323547e-19 1.3989957e-18 2.2779260e-18 
-1.7220027e-18 8.3633285e-19 1.2236370e-18 
2.0256776e-03 -7.5285066e-06 6.5255254e-06 
-1.0294084e-18 2.6008114e-18 2.1052301e-18 
2.0342593e-03 -1.9568746e-05 5.8570618e-06 
2.0230219e-03 -3.3170097e-06 6.6623711e-06 
2.0204647e-03 5.6204243e-07 5.0653880e-06 
2.0000001e-03 0.0000000e+00 0.0000000e+00 
2.0113967e-03 3.6032437e-05 -4.8052520e-06 
2.0310485e-03 -1.7520557e-05 8.2574488e-06 
8.1322752e-19 3.4249530e-19 3.5294233e-18 
2.0238014e-03 -3.8200560e-06 1.4335699e-06 
2.0039740e-03 -1.7577442e-05 7.6718734e-08 
2.0021617e-03 9.3977469e-06 -1.8414822e-06 
2.0000001e-03 0.0000000e+00 0.0000000e+00 
-1.4052729e-18 3.0119441e-18 6.4264525e-19 
2.0000001e-03 0.0000000e+00 0.0000000e+00 
2.0194342e-03 3.0358915e-06 3.4244792e-06 
2.0339526e-03 -1.7289331e-05 5.6155641e-06 
2.0293344e-03 -8.8938641e-06 3.9635543e-06 
-1.0851133e-18 -4.7787775e-20 2.0419789e-18 
-1.7815351e-18 7.1394538e-19 1.2724652e-18 
-2.3958343e-19 1.6690939e-18 3.1683098e-18 
-4.7905503e-18 7.4906224e-19 1.8753388e-19 
4.4885069e-19 -2.3493814e-19 2.5432491e-18 
2.0314839e-03 -1.5286108e-05 7.7587374e-06 
2.0196647e-03 1.3645546e-06 2.3825598e-06 
-1.7471095e-18 4.0226769e-18 1.7266773e-18 
-2.0011387e-18 1.1463932e-18 9.8637710e-19 
2.0316360e-03 -1.9106481e-05 8.2748575e-06 
-1.8208896e-18 4.2480791e-18 -6.9861462e-19 
-3.6235441e-18 7.0474237e-19 5.1103554e-19 
2.0197048e-03 3.4349321e-06 7.3067980e-07 
-1.6250219e-18 3.9786436e-18 1.9935464e-18 
2.0351023e-03 -1.9265875e-05 5.7451821e-06 
-2.0604029e-18 2.5920385e-18 1.9930317e-18 
-2.3142479e-18 2.1508040e-18 4.9322717e-19 
-1.3457919e-18 2.2768291e-18 2.1395481e-18 
-2.2970787e-18 2.5761109e-18 2.1756715e-18 
-2.0817249e-18 1.2727486e-18 3.3509728e-19 
2.0184636e-03 3.3966444e-06 -4.9323120e-07 
2.0195642e-03 -1.5715827e-05 -3.6517047e-06 
-3.0062399e-18 2.3994191e-18 4.2223044e-19 
2.0323251e-03 -1.7603832e-05 8.0983800e-06 
8.9163670e-19 -4.2363639e-19 2.7056737e-18 
2.4955334e-18 1.0565949e-18 9.7393920e-19 
2.0204342e-03 7.7227824e-06 -4.2595398e-06 
2.0165280e-03 3.4605034e-06 3.0872329e-06 
-9.2523988e-19 -1.9650433e-20 1.4910216e-18 
-2.3854249e-18 2.9504794e-18 -8.8903097e-20 
8.7884838e-19 -9.9789146e-19 2.0654721e-18 
2.0163278e-03 8.3591904e-06 -4.4062876e-06 
-3.3315756e-18 3.0063844e-18 -1.4549834e-19 
-1.8923680e-18 -1.1664992e-18 1.1383402e-18 
1.9062010e-19 -4.3029853e-19 7.8065997e-19 
2.0174899e-03 2.4191779e-05 -1.1710974e-05 
-3.1144529e-18 1.3446032e-18 -6.5789329e-19 
2.0006243e-03 1.0700427e-05 2.7279318e-06 
-2.3897062e-18 2.3264165e-18 3.4994956e-19 
-1.2500232e-18 2.7959122e-18 9.2246251e-19 
1.9855471e-03 4.0906081e-05 -1.1218577e-05 
2.0074330e-03 -1.3734848e-05 1.4634318e-08 
1.9841893e-03 4.1491221e-05 -2.9271955e-06 
-9.1374806e-19 2.1513950e-18 1.6158053e-18 
2.0354274e-03 -1.8386578e-05 5.3580138e-06 
2.0000001e-03 0.0000000e+00 0.0000000e+00 
-1.5975646e-18 1.9160834e-18 1.9406383e-18 
-2.0172636e-18 2.5342657e-18 7.4081050e-19 
2.0000001e-03 0.0000000e+00 0.0000000e+00 
2.0330539e-03 -1.9602227e-05 8.4266285e-06 
2.0339196e-03 -1.5558564e-05 5.7405318e-06 
-1.6598234e-18 2.1813586e-18 2.1433900e-18 
2.0017019e-03 1.1641983e-05 -6.2982267e-06 
7.8883314e-19 1.0724664e-19 2.3668930e-18 
2.7649430e-19 -2.8464440e-19 2.3469649e-18 
2.0235381e-03 -4.5012666e-06 2.6350476e-06 
2.0278806e-03 -5.2494597e-06 3.9632241e-06 
-1.0799265e-18 1.8786461e-18 1.5126325e-18 
4.2232350e-19 6.9045288e-19 2.2834720e-18 
2.0000001e-03 0.0000000e+00 0.0000000e+00 
2.0332586e-03 -1.6835073e-05 7.9000192e-06 
4.2061149e-19 4.4688417e-19 1.8760837e-18 
2.0064667e-03 2.5624727e-06 4.2005008e-06 
-2.5407531e-18 2.7495324e-18 -2.2665338e-19 
-2.0589291e-18 2.4828947e-18 8.1441706e-19 
-2.7815265e-18 1.0465930e-18 1.1920862e-18 
-3.0782852e-18 2.6946951e-18 7.1718710e-19 
-1.9167038e-18 1.0587248e-18 1.1727679e-18 
-4.6143991e-19 2.0678535e-18 1.1599023e-18 
-1.3876072e-18 3.8309385e-18 1.9927823e-18 
-2.9314849e-18 1.9954496e-18 -1.9482046e-19 
-2.0903450e-18 1.9759047e-18 1.5710502e-18 
-2.6657816e-18 1.7861052e-18 2.1445770e-18 
2.0349883e-03 -1.6977785e-05 4.8395623e-06 
2.0321314e-03 -1.1013715e-05 7.0004694e-06 
-1.3780108e-18 9.4990051e-19 1.5041272e-18 
3.1299235e-19 8.5301605e-19 1.6157137e-18 
2.0331824e-03 -1.3956120e-05 5.1233214e-06 
-1.7839060e-18 2.6801190e-18 9.1582977e-19 
-8.9668891e-19 -3.6856808e-19 -7.3025304e-19 
7.9229414e-20 9.7794856e-20 1.4864941e-18 
-1.5186145e-18 2.3610092e-18 1.3445967e-18 
5.1130417e-19 1.1417077e-18 1.3071543e-18 
1.2435187e-18 -6.8062685e-19 1.9163494e-18 
-1.8448510e-18 1.6422372e-18 3.0541302e-20 
2.0295358e-03 -8.8218221e-06 3.6984923e-06 
2.0000001e-03 0.0000000e+00 0.0000000e+00 
-1.8776586e-18 1.8935845e-18 1.1892217e-18 
2.0000001e-03 0.0000000e+00 0.0000000e+00 
1.9918565e-19 3.4709509e-19 1.1957207e-18 
2.0343822e-03 -1.9210624e-05 8.3906198e-06 
1.1173873e-18 1.5021986e-18 1.9619165e-18 
-5.9021069e-19 9.6675318e-19 1.4533502e-18 
2.0318872e-03 -1.2429119e-05 4.2352926e-06 
-2.7900022e-18 3.3420241e-18 1.8329305e-18 
-1.9206414e-18 3.3285959e-18 1.3237862e-18 
-2.0432564e-19 2.6273665e-18 1.1597713e-18 
-2.2817457e-18 2.7772810e-18 5.4390311e-20 
-6.5623355e-19 1.3161113e-18 2.3670214e-18 
2.0337796e-03 -1.5157049e-05 7.6980859e-06 
-1.8677089e-18 2.4983117e-18 1.9060351e-18 
-3.5909927e-19 1.8905757e-18 2.6817179e-18 
2.0313663e-03 -1.4617182e-05 2.6714206e-06 
-3.9233357e-19 -6.7787105e-19 3.0789776e-18 
2.0338902e-03 -1.5498223e-05 4.2886509e-06 
3.7819724e-19 5.0891331e-19 5.7677391e-20 
1.9849599e-03 1.7228263e-05 1.4613239e-05 
-1.3591298e-18 1.9916181e-18 3.6051618e-19 
-2.5413822e-18 3.7695700e-18 -9.8687765e-19 
1.6602253e-18 1.3602661e-18 3.1190980e-19 
2.0091820e-03 8.4854373e-06 7.6741426e-06 
-2.5242907e-18 3.2258830e-18 9.8265469e-19 
-1.3112008e-18 2.3605563e-18 1.4593814e-18 
2.0000001e-03 0.0000000e+00 0.0000000e+00 
-1.9022371e-18 3.8448815e-18 1.9958022e-18 
-5.8534557e-19 1.0426268e-18 3.2983217e-19 
-1.9247606e-18 3.8421563e-18 1.7853564e-18 
2.0306802e-03 -1.1616753e-05 2.4968078e-06 
-4.7489995e-19 2.1241010e-18 2.5101112e-18 
-1.3016757e-18 2.0877528e-18 2.5956742e-18 
-1.8387654e-18 1.8163277e-18 7.1798988e-19 
-3.3108584e-19 2.2686938e-18 1.7969186e-18 
-2.3635404e-18 3.5229246e-18 3.4089739e-19 
2.0284604e-03 -1.3237638e-05 5.5910391e-07 
-2.1687851e-18 2.1197872e-18 3.1053684e-19 
2.0336281e-03 -1.3237772e-05 7.0674396e-06 
-7.3741110e-19 2.0907720e-18 1.8930006e-18 
-1.7115078e-18 2.9530689e-18 2.1018738e-18 
-1.8981804e-18 8.4182874e-19 1.1744944e-18 
2.0353559e-03 -1.8078425e-05 8.2336483e-06 
-2.2704921e-18 1.8235693e-18 7.2331159e-19 
-2.7550661e-18 2.3407795e-18 1.2331742e-18 
-3.2245676e-18 2.0494283e-18 4.1905355e-19 
-3.1298595e-18 3.3735418e-18 1.6692912e-19 
-2.6191371e-18 2.2528469e-18 8.3319287e-19 
2.0289423e-03 -2.4176184e-06 5.1325078e-06 
3.2186787e-20 -4.7469248e-19 2.3790457e-18 
-2.5057025e-18 2.3108527e-18 1.9175655e-18 
2.0000001e-03 0.0000000e+00 0.0000000e+00 
-2.2051827e-18 2.2499096e-18 2.8323059e-18 
-1.1574750e-18 2.5260822e-18 2.6775597e-18 
-2.0771339e-18 1.3374903e-18 -2.5768628e-19 
2.0248098e-03 -5.8810479e-06 2.2883548e-06 
-1.5466826e-18 1.1454198e-18 -2.6019171e-18 
-7.9509278e-19 4.7703278e-19 1.7499556e-18 
-9.9732122e-19 -4.2486891e-19 1.0464014e-18 
-8.2937233e-19 8.1232078e-19 1.1016024e-18 
-1.1510916e-18 2.2852122e-18 2.2515718e-18 
1.1502874e-18 3.4645858e-19 4.0352597e-19 
-5.2998610e-19 1.3588710e-18 2.6658722e-18 
1.5559867e-18 -1.0289761e-18 2.0471459e-18 
-1.8948208e-18 7.7410964e-19 2.3181840e-18 
1.0038634e-18 5.1334648e-19 9.1013225e-19 
2.0329384e-03 -1.1309481e-05 6.3631101e-06 
-5.3178139e-19 2.6178081e-18 1.1526852e-18 
1.9855786e-03 -2.3154962e-05 2.2020631e-05 
6.8567152e-19 9.1350169e-20 1.6773397e-18 
2.0238729e-03 -1.0408909e-05 1.3770293e-06 
2.0356579e-03 -1.6361586e-05 7.8447820e-06 
-1.1094710e-18 1.6338840e-18 -3.4208669e-19 
-2.3183608e-18 2.0293975e-18 7.7745429e-19 
-2.2673087e-18 3.5151115e-18 1.7222535e-18 
-1.1035708e-18 -5.0335326e-19 4.8633820e-19 
2.0134957e-03 -1.4709070e-05 3.9590223e-06 
2.0115976e-03 4.9999217e-06 3.8544740e-06 
2.0168114e-03 -9.9775325e-06 1.3204169e-06 
-2.1744907e-18 3.3383870e-18 -1.2924527e-18 
-1.6541900e-18 2.2975773e-18 2.6269922e-18 
-6.9255458e-20 -1.0468071e-18 -1.2274394e-18 
-2.2884251e-18 3.4845786e-18 1.3336531e-18 
2.0018597e-03 -1.1157729e-05 4.1639364e-06 
-1.6169272e-18 2.2482014e-18 7.3329851e-19 
-1.0360928e-18 1.0546730e-18 9.4643803e-19 
-5.3368788e-19 1.5002023e-18 6.6416704e-19 
-2.0976541e-18 1.1232364e-18 -2.1247058e-19 
-1.4124654e-18 3.3893678e-18 -2.9617168e-19 
-2.3309871e-18 3.4055495e-18 2.4895407e-19 
-1.2831484e-18 1.6909283e-18 1.4337799e-18 
-8.7585295e-19 4.4089984e-18 2.3994835e-18 
6.9869452e-20 1.3896804e-18 9.3081890e-19 
-3.1485788e-18 3.5197751e-18 1.8449389e-18 
1.5834792e-18 -9.9633812e-19 -4.7935685e-19 
2.5806908e-19 1.3379640e-18 1.4650683e-18 
-2.4234771e-18 2.7226317e-18 4.3660490e-19 
-2.6345262e-18 3.8311883e-18 8.5973844e-19 
-2.4182125e-18 2.5876832e-18 -9.0122300e-19 
-1.6243877e-18 2.5335856e-18 4.6653224e-19 
6.6924516e-19 1.9882862e-18 -3.5064138e-20 
-1.0482875e-18 2.0418701e-18 1.6880605e-18 
2.0000001e-03 0.0000000e+00 0.0000000e+00 
2.0317226e-03 -8.3177720e-06 5.6269082e-06 
2.0000001e-03 0.0000000e+00 0.0000000e+00 
2.1754991e-18 8.2980090e-20 -5.5039719e-19 
1.1401265e-18 6.7037224e-19 -4.0216722e-21 
2.0352765e-03 -1.4217871e-05 7.1951358e-06 
-1.9873846e-18 1.8432029e-19 -7.3316223e-19 
-1.2064703e-18 6.3031819e-19 -1.9366910e-18 
1.5001316e-19 1.4948219e-19 1.2671477e-18 
-1.9752686e-18 2.8938128e-18 -2.4580157e-20 
-2.2309241e-18 2.6791239e-18 -1.1185474e-19 
-3.4403436e-18 4.2068768e-18 4.4569603e-19 
3.1805097e-19 1.6470341e-18 1.5260714e-18 
-2.7034634e-18 3.3571260e-18 -2.6566260e-19 
-1.6802093e-18 2.6153673e-18 1.1442144e-18 
-7.9214869e-19 1.9735613e-18 1.5982426e-18 
-2.5638593e-18 2.1900504e-18 1.6383195e-19 
-2.3248321e-18 2.6448302e-18 1.2397933e-19 
2.0292972e-03 -4.5831375e-06 5.0921035e-06 
-3.0322826e-18 2.7575321e-18 -5.8147912e-19 
-8.2185765e-19 1.8610480e-18 1.0638028e-18 
2.1025233e-19 1.5347346e-18 -1.5912917e-19 
-6.4495443e-19 2.2694749e-18 5.1972564e-19 
6.7760004e-19 4.9269214e-19 -8.7107516e-19 
-2.0262618e-18 3.1598887e-18 2.4694677e-18 
-1.8904241e-18 2.5159805e-18 2.8811286e-18 
-3.1946863e-19 2.2115881e-18 9.4463923e-19 
9.6209636e-19 4.3363250e-19 -3.0778033e-19 
-2.0805578e-18 3.2718172e-18 1.6653848e-18 
2.0341233e-03 -1.1371219e-05 6.5541772e-06 
-3.2318503e-18 8.9591322e-19 1.2122322e-18 
-1.8662169e-18 2.3860957e-18 1.6891132e-18 
-1.2803582e-18 2.4034924e-18 2.3717855e-18 
1.2532078e-19 6.9140088e-19 2.5438240e-18 
-8.2212297e-19 9.3866584e-19 5.0322003e-19 
1.9906750e-03 2.0589086e-05 3.2912267e-06 
-2.2321619e-19 -1.2390072e-18 2.2143956e-18 
-1.8657063e-18 2.3335071e-18 -8.0151770e-19 
-3.1105792e-18 2.0776777e-18 1.4893692e-18 
-2.4649132e-18 4.4785163e-18 9.9844246e-19 
2.0250978e-03 -1.3368610e-06 4.1142416e-06 
-2.6239205e-18 2.6815359e-18 -1.3392329e-19 
-1.1323733e-18 1.4025059e-18 2.2790726e-18 
-1.7441674e-18 3.1800065e-18 9.3512158e-19 
-3.0168197e-18 2.7631176e-18 -8.5465107e-19 
1.0095994e-18 8.3126772e-20 5.3982014e-19 
-2.8415058e-18 3.5843700e-18 2.3233564e-18 
-1.2042886e-18 2.7661002e-18 1.8844322e-18 
-1.9737644e-18 4.1668512e-18 -6.6240722e-19 
2.0208517e-03 1.3723076e-07 3.8503172e-06 
-1.4840661e-18 2.0324469e-18 1.8519164e-18 
-1.3800314e-18 1.9552054e-18 1.3561601e-18 
5.5812186e-21 1.1189303e-19 1.6857569e-18 
2.0757375e-19 -6.7340934e-19 3.8503239e-19 
-2.9115504e-18 5.2873956e-18 7.9283364e-19 
2.0816833e-18 9.5125016e-19 7.0542990e-20 
2.0328960e-03 -8.2028919e-06 6.2034042e-06 
1.6410831e-18 9.3827624e-19 1.0478744e-18 
-2.1760690e-18 3.1350774e-18 1.5536983e-18 
2.0000001e-03 0.0000000e+00 0.0000000e+00 
-3.0852392e-19 5.8729126e-19 1.1762183e-18 
-2.6271105e-18 3.5626371e-18 9.4234949e-19 
-2.7724528e-18 2.4073324e-18 2.1211876e-19 
-2.0536624e-18 3.4059205e-18 1.3594167e-18 
-1.4026388e-18 2.8067510e-18 2.4524935e-18 
-2.3216265e-18 3.2327211e-18 1.5877827e-18 
8.8888146e-19 3.5988193e-19 -2.1991628e-19 
-1.8317675e-18 9.9434668e-19 7.0513125e-19 
-1.9238376e-18 2.8371619e-18 3.4599327e-18 
-1.8589040e-18 1.8868501e-18 8.9725150e-19 
-1.9972472e-18 2.2985230e-18 3.3245324e-18 
-7.8243344e-20 1.5665694e-18 3.5822396e-18 
-1.0847064e-18 1.8044136e-18 1.1898229e-18 
-1.4319880e-18 1.7578705e-18 -3.0085970e-19 
2.0289987e-03 -4.1502426e-06 4.9249484e-06 
-9.6504784e-19 1.8053144e-18 2.5565818e-18 
-2.1631809e-18 2.8418131e-18 8.7888064e-19 
-1.5155715e-18 1.7140621e-18 1.5355307e-18 
7.0210858e-19 1.6581476e-18 3.1576145e-18 
0.0000000e+00 0.0000000e+00 0.0000000e+00 
-1.9934480e-18 2.4100060e-18 3.1858296e-20 
-2.3192407e-18 3.6777017e-18 4.9757545e-19 
0.0000000e+00 0.0000000e+00 0.0000000e+00 
-2.8932156e-18 2.8903397e-18 6.1454681e-19 
-1.9397408e-18 2.4309366e-18 1.1951432e-19 
-1.2122182e-18 1.5915405e-18 2.1602527e-18 
-1.8993537e-18 4.6903093e-18 1.5404214e-18 
-7.3197983e-19 1.0827516e-18 5.7966998e-19 
2.0231493e-03 3.3575482e-06 4.0528535e-06 
-2.3369792e-18 3.3656699e-18 -1.4769058e-18 
-1.9415647e-18 2.0377915e-18 8.5200579e-20 
-1.9925753e-19 1.3815444e-18 7.5222848e-19 
0.0000000e+00 0.0000000e+00 0.0000000e+00 
0.0000000e+00 0.0000000e+00 0.0000000e+00 
-2.0478273e-18 2.2266029e-18 2.0241951e-18 
-1.3200498e-18 2.2004719e-18 3.7048892e-19 
7.1585777e-19 4.8808247e-19 6.8101940e-19 
-6.3658822e-19 1.1290663e-18 3.2703025e-19 
-1.4926936e-18 3.8459949e-18 4.5907113e-19 
-1.2995859e-18 3.5924715e-18 3.7245710e-19 
2.0130628e-03 1.9352981e-05 7.3264910e-06 
2.4800446e-19 -9.5400322e-19 8.8160961e-19 
-1.5501606e-18 3.2994735e-18 1.8053231e-19 
-3.2764448e-18 3.1983941e-18 1.7475042e-18 
-1.7969508e-18 1.6948087e-18 4.8541797e-19 
-2.2710932e-18 3.3277263e-18 1.3879420e-18 
1.9751701e-03 4.2542586e-05 9.1668790e-06 
2.0000001e-03 0.0000000e+00 0.0000000e+00 
0.0000000e+00 0.0000000e+00 0.0000000e+00 
-4.2731840e-19 5.2240509e-19 1.3317097e-18 
-1.8291100e-18 3.3329992e-18 1.3913364e-18 
6.0580423e-19 9.1851803e-20 2.1404546e-19 
-7.5929638e-19 2.4968778e-18 2.8051469e-18 
1.0133590e-18 9.4903569e-19 8.5228673e-19 
-1.8456192e-18 6.2584320e-19 1.3886551e-18 
-2.1121801e-18 3.6543359e-18 9.9149497e-19 
-1.5853931e-18 2.1666307e-18 4.3367580e-19 
-2.5024372e-18 4.7269931e-18 5.9984517e-19 
-7.5177074e-19 2.9361045e-18 1.8378578e-18 
-2.9731117e-18 3.5636041e-18 6.6376374e-19 
-9.0014446e-19 1.3048863e-18 1.0206404e-18 
-3.2034925e-18 4.9496084e-19 -5.6269178e-19 
-2.2853383e-18 2.1334835e-18 1.1291187e-18 
-2.2788797e-19 8.2659693e-20 1.2426413e-18 
-1.8340329e-18 2.4485892e-18 2.4752654e-18 
-2.0938421e-18 2.9498069e-18 2.0146617e-18 
-2.2125297e-18 3.7847434e-18 -3.5363858e-19 
-2.2474909e-18 1.4188210e-18 5.1400910e-19 
-4.6754373e-19 2.1027545e-18 -4.2863672e-19 
-6.5767378e-19 1.7984087e-18 5.3453683e-19 
-9.8015557e-19 1.8737372e-18 2.5289837e-18 
-1.0011939e-18 2.4158716e-18 2.1489904e-18 
-2.3695825e-18 2.9189661e-18 9.8337806e-19 
-1.3113036e-18 3.9054821e-19 4.1375504e-19 
-1.5085464e-18 1.8141744e-18 5.4060499e-20 
-2.1444316e-18 3.6867064e-18 3.6800058e-19 
-1.4394082e-18 4.4632188e-18 1.3117035e-19 
0.0000000e+00 0.0000000e+00 0.0000000e+00 
1.2172661e-18 -5.5187916e-22 6.2261843e-19 
-2.4692967e-18 2.8547599e-18 -8.8553086e-19 
-8.3553121e-19 1.5008188e-18 -8.2511525e-19 
-2.6654628e-18 4.3102202e-18 6.6022811e-19 
-1.9704836e-18 3.0512796e-18 -4.6002306e-19 
-1.5844460e-18 3.1545221e-18 1.9514696e-18 
-2.1804677e-18 3.8845456e-18 -3.5697109e-19 
-2.5672309e-18 3.1310091e-18 2.6592328e-18 
0.0000000e+00 0.0000000e+00 0.0000000e+00 
-3.7009624e-20 1.4711904e-18 -3.8987859e-20 
-2.0526131e-18 2.7014666e-18 1.0407055e-19 
-1.1412181e-18 2.1381401e-18 1.9416752e-18 
-6.0206108e-19 -3.1413913e-19 -1.5650685e-18 
-1.9382426e-18 1.3314592e-18 1.7649125e-18 
-2.1575532e-18 3.2617177e-18 1.8352605e-18 
-1.6183294e-18 7.5883394e-19 -1.4040877e-18 
-4.3958927e-19 3.7426717e-18 1.0677012e-18 
-1.4383721e-18 2.1269913e-18 1.8846663e-18 
-2.2405597e-18 2.8601445e-18 -1.3729772e-18 
-1.0983169e-18 5.9996971e-19 -1.2265857e-18 
-2.0473506e-18 2.5642243e-18 5.7412833e-19 
0.0000000e+00 0.0000000e+00 0.0000000e+00 
-1.7639856e-18 8.7367768e-19 7.3715948e-19 
-4.5374633e-21 1.5331669e-19 2.5759560e-19 
-1.8892915e-18 4.0314740e-18 1.5969527e-18 
-2.1257293e-18 3.8135404e-18 6.9057303e-19 
-2.9937333e-18 4.0430731e-18 6.4614903e-19 
1.5628040e-18 -1.1690463e-20 7.5842520e-19 
-2.4518039e-18 3.3239176e-18 -3.1448195e-19 
-2.3838973e-18 1.9166240e-18 -1.5697597e-18 
4.7604089e-19 2.0695397e-18 2.1779775e-18 
-2.4041717e-18 3.3007565e-18 1.9868368e-18 
-6.0666481e-19 1.1016782e-18 4.8835792e-19 
-1.2736872e-18 3.0567244e-18 1.4162726e-18 
-2.5099989e-18 2.8471402e-18 -8.0249987e-19 
-2.6757386e-18 3.5676924e-18 2.0354173e-18 
-2.4442441e-18 2.5171582e-18 1.6432876e-18 
-1.5641511e-18 3.1118206e-18 5.1665639e-19 
-1.2189159e-18 1.0070778e-18 -9.0255803e-20 
-1.6858667e-18 3.5825416e-18 1.2166532e-18 
-2.2725470e-18 3.0143967e-18 -7.0872535e-19 
-2.0433528e-18 2.3081253e-18 1.0731710e-18 
-8.9243089e-19 2.0670664e-18 -6.5549824e-20 
8.9276373e-19 2.0502188e-18 2.5182029e-18 
6.7465068e-19 2.0698711e-19 -5.1699952e-19 
1.9470140e-19 2.6408087e-19 1.0862952e-19 
-1.7288198e-18 1.9888143e-18 9.7630628e-19 
-1.9426980e-18 3.7492884e-18 1.2113106e-18 
0.0000000e+00 0.0000000e+00 0.0000000e+00 
-1.1801294e-18 1.6511523e-18 2.1723421e-18 
-1.3571483e-18 3.4379494e-18 -2.8670943e-19 
2.4798392e-20 3.7274426e-19 1.8070311e-18 
-1.2442317e-18 3.2656495e-18 2.3794727e-19 
-2.4305684e-20 -9.0187688e-19 8.2015480e-19 
-2.6926170e-18 2.5690888e-18 2.4769942e-18 
-2.5930574e-18 2.9230274e-18 1.0954102e-18 
-2.3226477e-18 3.1040877e-18 -7.9169069e-19 
1.1177763e-18 1.0767392e-18 -1.0548683e-19 
-1.3961973e-18 3.9186060e-18 1.1570160e-18 
-1.6812327e-18 6.1817482e-18 1.1638051e-18 
-1.2760203e-18 4.3243588e-18 8.3189141e-19 
1.7149861e-18 -1.0729414e-19 1.9011009e-19 
-2.0183021e-18 3.5409005e-18 1.2563441e-18 
-1.7083344e-18 2.6872255e-18 5.1480639e-20 
-2.6159310e-18 3.4490687e-18 -8.0330728e-20 
-4.2283545e-19 3.5821768e-18 2.2319535e-18 
-1.5725789e-18 2.3487430e-18 2.0836752e-18 
-1.4350925e-18 3.6325827e-18 6.6379342e-19 
0.0000000e+00 0.0000000e+00 0.0000000e+00 
-1.9895573e-18 1.5681705e-18 6.4196226e-19 
0.0000000e+00 0.0000000e+00 0.0000000e+00 
-3.1447616e-19 3.0503067e-18 2.5653949e-19 
-1.5875131e-18 4.5006582e-19 -8.9564035e-19 
-2.1738151e-18 4.2470625e-18 1.9041510e-18 
-3.2666746e-18 2.1496420e-18 -1.7366594e-19 
-2.5606815e-18 3.5464020e-18 1.5759913e-18 
-1.3711736e-18 4.0163043e-18 -1.0556914e-18 
-5.9542441e-19 1.7207349e-18 -1.0252195e-18 
-1.8481111e-18 2.8577564e-18 4.7232008e-19 
4.3925281e-19 1.5381875e-19 6.4216445e-19 
-1.8282567e-18 3.8279603e-18 6.6701001e-20 
-1.3812601e-18 3.2681492e-18 1.0890279e-18 
-9.9168006e-19 3.5930315e-18 1.8601787e-18 
3.8275149e-19 1.1638436e-18 -2.5107537e-19 
-1.8179172e-18 1.5582946e-18 8.6408300e-19 
3.4179160e-19 1.8536232e-18 2.3507364e-19 
-2.9488184e-18 3.5598921e-18 2.1025224e-19 
-1.3556322e-18 2.9595569e-18 7.3336722e-19 
2.6998888e-19 1.0224390e-18 6.8269873e-19 
0.0000000e+00 0.0000000e+00 0.0000000e+00 
-1.2599352e-18 3.1642322e-18 1.8470116e-18 
-2.0413091e-18 1.5423414e-18 -7.3883488e-19 
-1.3839295e-18 1.4803365e-18 -2.5054337e-19 
0.0000000e+00 0.0000000e+00 0.0000000e+00 
0.0000000e+00 0.0000000e+00 0.0000000e+00 
-2.0354090e-18 2.0631644e-18 4.3794007e-19 
-1.2965356e-18 2.0670658e-18 2.3335106e-18 
-2.7185990e-18 4.2295593e-18 2.7016577e-19 
-3.0344947e-18 3.4716146e-18 2.2225506e-19 
-7.2938393e-19 2.7902936e-18 1.7075665e-18 
-2.3342927e-18 2.7890671e-18 -1.8936476e-19 
-2.2111636e-18 4.7600766e-18 1.7736303e-18 
-1.0104096e-18 6.6738767e-19 1.5160879e-19 
-1.1527535e-18 3.6710805e-18 9.0395486e-19 
1.7821062e-18 2.9989983e-18 1.5773086e-18 
-2.7843460e-18 3.8104757e-18 1.8611967e-18 
-2.8362563e-18 3.7078532e-18 1.7963519e-18 
-1.3881197e-18 2.2293341e-18 1.9617060e-18 
-7.9628418e-19 1.4858032e-18 5.6867328e-19 
-3.4880974e-18 4.0940093e-18 -9.9736507e-20 
0.0000000e+00 0.0000000e+00 0.0000000e+00 
-1.3824362e-18 1.0968972e-18 1.8681295e-19 
-9.8871648e-19 1.9820722e-18 4.6191342e-19 
1.8160235e-19 2.2328217e-18 1.6739823e-18 
4.0960291e-19 -2.9085433e-19 8.0943299e-19 
-2.2769565e-18 4.2553087e-18 -5.1162744e-19 
-2.4898261e-18 2.9311372e-18 1.0468367e-18 
-1.7041792e-18 2.9839339e-18 1.6997181e-18 
-5.4549966e-19 2.7724391e-18 7.6591941e-19 
-1.7884704e-18 2.4331418e-18 3.3876173e-18 
-3.4412395e-18 3.5355792e-18 -5.6654815e-19 
0.0000000e+00 0.0000000e+00 0.0000000e+00 
-5.1455147e-19 3.1788261e-18 2.0506632e-18 
-2.6258561e-18 3.3522605e-18 1.8398964e-18 
-6.0718960e-19 1.6111504e-18 -7.4572685e-19 
-2.0785115e-18 3.7296192e-18 2.7600093e-18 
-2.5181818e-18 4.3835531e-18 -3.0803795e-19 
-4.5330273e-19 2.6749034e-18 -6.4780915e-20 
-3.2518792e-18 3.0652735e-18 -3.5324867e-19 
-2.8415447e-18 2.8124393e-18 1.4256227e-19 
-2.9894620e-18 3.4777179e-18 8.1731049e-19 
2.1357766e-19 1.7527544e-18 1.1869465e-18 
-2.7576012e-18 3.8946641e-18 -7.5896877e-19 
6.0552325e-19 2.2213859e-18 1.0660327e-18 
0.0000000e+00 0.0000000e+00 0.0000000e+00 
0.0000000e+00 0.0000000e+00 0.0000000e+00 
-2.4402097e-18 3.3735335e-18 7.7837494e-19 
-2.1641785e-18 2.5486316e-18 3.8072197e-19 
-2.0627403e-18 2.2679266e-18 8.8891755e-19 
-2.3774875e-18 3.5797862e-18 1.3045463e-18 
-5.5795400e-19 -7.8674725e-20 2.5749952e-19 
-1.8478437e-18 5.5774850e-20 -7.5991940e-19 
-3.2834707e-18 4.3879942e-18 -2.7970078e-19 
-1.9524389e-18 4.2303315e-18 -1.9465816e-18 
-1.4365432e-18 3.0078090e-18 1.8879405e-18 
-1.5129340e-18 2.3026750e-18 -1.7601190e-19 
-2.3731750e-18 3.2784613e-18 -4.6434937e-19 
-9.7526621e-19 2.5951830e-18 2.0214638e-18 
-5.3183567e-19 2.4444200e-18 3.1958263e-19 
-1.4959793e-18 1.2210493e-18 -5.2575150e-19 
-1.2866144e-18 2.5848894e-18 7.3057000e-19 
-2.0889088e-18 3.5586501e-18 6.5743167e-19 
-3.8756725e-18 4.3755704e-18 -1.5360696e-19 
-1.8041446e-18 2.5713927e-18 -7.4950809e-19 
-1.5520452e-18 2.4808253e-18 -8.5390718e-19 
-1.5378813e-18 2.8892166e-18 7.0047272e-19 
-1.3153053e-19 1.8940467e-18 -5.0878396e-19 
-2.0712203e-18 5.3025519e-19 1.8356799e-20 
-2.5993929e-18 3.9728500e-18 -7.8718059e-19 
-2.3677931e-19 1.7377050e-18 -1.7971510e-18 
-1.7492136e-18 2.5790400e-18 -2.9328288e-19 
0.0000000e+00 0.0000000e+00 0.0000000e+00 
0.0000000e+00 0.0000000e+00 0.0000000e+00 
-1.2589878e-18 2.6019090e-18 2.1538859e-18 
-1.8750640e-18 3.9176697e-18 1.0544016e-18 
0.0000000e+00 0.0000000e+00 0.0000000e+00 
0.0000000e+00 0.0000000e+00 0.0000000e+00 
-1.3183027e-18 3.7873858e-18 1.8472089e-18 
-1.0849076e-18 3.3173078e-18 2.0753312e-18 
-1.6720854e-18 3.6565461e-18 7.8153973e-19 
1.1689766e-18 1.5671184e-18 -9.4792003e-19 
-3.5031273e-18 3.9562576e-18 1.7502985e-18 
0.0000000e+00 0.0000000e+00 0.0000000e+00 
-2.7657086e-18 2.8543621e-18 -1.6879381e-18 
-9.6634238e-19 2.0679441e-18 1.7935912e-18 
4.5935937e-20 1.1788494e-18 7.1750184e-19 
-1.7093052e-18 4.1653428e-18 7.2135898e-19 
-1.3794289e-18 3.5036256e-18 4.3535865e-19 
-2.3527831e-18 3.9463923e-18 8.9789256e-19 
-1.8500666e-18 4.5132686e-18 -8.4116449e-21 
-4.7075428e-19 2.9073542e-18 2.2169795e-18 
-2.8597090e-18 3.2262296e-18 -2.0972426e-18 
-1.8433867e-18 2.7336853e-18 1.8243511e-19 
-1.2565475e-18 1.9142725e-18 2.4981896e-19 
0.0000000e+00 0.0000000e+00 0.0000000e+00 
0.0000000e+00 0.0000000e+00 0.0000000e+00 
-2.6037268e-18 3.3191344e-18 1.6724233e-18 
-3.7807368e-19 3.7859395e-18 1.2860199e-18 
-1.3906405e-19 5.1443640e-18 4.0024403e-19 
-1.0665864e-18 4.1328425e-18 6.7847065e-19 
-3.0153467e-18 2.8390671e-18 -8.3747539e-19 
-2.4621118e-18 4.1231359e-18 2.1394450e-18 
-1.2932053e-18 1.1319024e-18 -6.1877851e-19 
-1.8569260e-18 2.6513511e-18 -2.0370516e-18 
-2.1733019e-18 2.5802332e-18 -5.2353864e-19 
-9.9396173e-19 3.7357627e-18 1.2456417e-20 
-2.8598301e-18 2.8218636e-18 -1.4575019e-18 
-2.6621726e-18 2.5438010e-18 1.8635387e-18 
-4.8055053e-19 5.4757375e-18 8.5739297e-19 
-1.8741057e-18 3.4046936e-18 -2.2353117e-18 
-1.7397438e-19 1.3705643e-18 9.2318723e-19 
-3.8688964e-19 3.2137495e-18 -2.1668869e-18 
-6.2977634e-19 3.4169747e-18 1.5862784e-18 
-1.9809243e-18 4.3335198e-18 -3.3135299e-19 
-1.8669808e-18 9.9417576e-19 1.3867150e-18 
-8.6678400e-19 3.6160891e-18 1.8637401e-18 
-1.8759606e-18 5.0584894e-18 1.8674661e-18 
-6.0672385e-19 2.5550323e-18 6.2816701e-19 
0.0000000e+00 0.0000000e+00 0.0000000e+00 
0.0000000e+00 0.0000000e+00 0.0000000e+00 
6.7653874e-20 2.9288085e-18 5.6168743e-19 
-2.1963209e-18 2.6506124e-18 -1.5103413e-18 
-2.7662865e-20 4.5751016e-18 1.6860127e-18 
-1.2595761e-18 -1.1501041e-18 -1.2223873e-18 
-1.7500453e-18 4.0291889e-18 1.1832612e-18 
-4.3292232e-19 1.7174986e-18 1.2395321e-18 
-3.1238323e-18 3.5460389e-18 -2.7831431e-18 
-3.7762604e-19 4.2156627e-18 9.2243935e-19 
-2.0374947e-18 2.2617051e-18 -8.4974041e-19 
-3.9114220e-18 3.4856415e-18 -8.0798770e-19 
-2.0816451e-18 2.7972988e-18 7.4034067e-20 
7.0615773e-19 1.3805173e-18 -6.6432343e-19 
-4.3420009e-18 4.1473852e-18 -7.9783193e-19 
-3.2878965e-18 3.8749772e-18 -1.4309804e-18 
0.0000000e+00 0.0000000e+00 0.0000000e+00 
-1.6584599e-18 3.2628323e-18 3.0260924e-19 
-1.6290535e-18 2.1420078e-18 4.3535012e-19 
-2.0274052e-18 2.4316213e-18 2.8214938e-18 
-6.0046933e-19 4.5239463e-18 1.2027706e-18 
-2.6238314e-18 3.0805807e-18 1.1515073e-18 
-2.2531724e-18 4.8764270e-18 -1.3844242e-18 
-1.3242168e-18 1.1626270e-18 -1.2980880e-18 
-1.4840363e-18 4.2467701e-18 -5.9602096e-19 
0.0000000e+00 0.0000000e+00 0.0000000e+00 
-3.0407139e-18 4.0510918e-18 1.6896251e-18 
-3.3889199e-18 2.7405286e-18 5.3317431e-19 
-1.0316049e-18 2.3303156e-18 -3.4876496e-19 
-1.3504967e-18 4.3521376e-18 8.5388283e-19 
-2.1804812e-18 4.0613158e-18 1.7102751e-18 
-5.3715139e-19 1.4484090e-18 -7.5861055e-19 
1.0106492e-19 1.8640333e-18 1.7162206e-18 
-7.5969606e-19 3.4440444e-18 3.2610691e-19 
7.4121470e-20 2.7989259e-18 2.8618749e-18 
-1.2763967e-18 2.1776384e-18 -1.1478533e-18 
4.0086036e-19 2.4814225e-18 -4.1424150e-19 
-1.8194812e-18 2.2516677e-18 -5.9933475e-19 
-1.7704031e-18 1.4550302e-18 5.3278398e-19 
-2.2385575e-18 5.1867157e-18 6.3708587e-19 
-1.6237263e-18 4.2654652e-18 2.1422170e-19 
-1.3175430e-18 2.2041127e-18 2.3158983e-18 
-2.4885745e-18 2.5128541e-18 2.1063799e-18 
0.0000000e+00 0.0000000e+00 0.0000000e+00 
-2.4886916e-18 1.3802793e-18 2.2291248e-19 
-1.4786643e-18 2.3531061e-18 8.1794514e-20 
-2.1498838e-18 4.4278908e-18 1.3418821e-18 
-8.8927675e-19 3.4263264e-18 1.0141268e-18 
-2.2992429e-19 3.5377253e-18 2.5902966e-18 
0.0000000e+00 0.0000000e+00 0.0000000e+00 
-2.1914401e-18 4.7562683e-18 8.5240538e-19 
-2.3857725e-18 4.2478508e-18 -9.4792165e-20 
0.0000000e+00 0.0000000e+00 0.0000000e+00 
-2.1703840e-18 3.2059498e-18 1.4491656e-19 
-2.0161572e-18 2.6919160e-18 6.2817537e-20 
-1.2843433e-18 1.5996706e-18 4.0692176e-19 
0.0000000e+00 0.0000000e+00 0.0000000e+00 
-6.4646114e-19 1.9393295e-18 1.6666440e-18 
-1.1717655e-18 2.2457004e-18 3.8923449e-19 
-7.6661559e-19 2.9660577e-18 -7.2354078e-19 
-3.0376924e-18 4.3232591e-18 1.1320229e-18 
-1.0020351e-18 2.7485706e-18 1.2336257e-18 
-1.4230804e-18 3.4835140e-18 1.0656645e-18 
-1.1993520e-18 1.9836035e-18 9.7331075e-19 
-1.3147424e-18 2.1984260e-18 -8.7668851e-19 
-1.3242403e-18 3.3408452e-18 1.2800577e-18 
-1.4493610e-18 2.1661736e-18 1.7972631e-18 
-1.7227249e-18 2.5618522e-18 1.7804279e-18 
-1.5976801e-18 3.5291801e-18 6.1935205e-19 
-1.0039964e-18 3.0375913e-18 1.9649580e-18 
-1.1558859e-18 4.2742188e-18 4.8481614e-19 
-2.3179452e-18 2.5519928e-18 2.1931042e-18 
-1.1087582e-18 3.4625385e-18 1.5075431e-18 
-1.9947310e-18 3.5450612e-18 1.7770460e-18 
-1.3348262e-18 3.6813400e-18 -8.6602414e-19 
-1.4363958e-18 2.8909232e-18 1.1191636e-18 
-1.4944700e-18 3.4186167e-18 1.2172714e-18 
-8.2492887e-19 2.4716552e-18 1.2107658e-18 
-1.1847904e-19 2.3325519e-18 2.1892754e-18 
0.0000000e+00 0.0000000e+00 0.0000000e+00 
-1.2256094e-18 2.8658859e-18 1.1374356e-18 
1.8265024e-20 2.7098861e-18 2.0465182e-18 
-3.1030893e-18 4.9277341e-18 -1.3766533e-18 
-7.4787938e-19 2.7411678e-18 -4.5812664e-19 
-3.5458340e-19 1.8039752e-18 1.1157665e-18 
-1.2251105e-18 1.9910357e-18 -1.4866801e-18 
0.0000000e+00 0.0000000e+00 0.0000000e+00 
-1.6347826e-18 3.8690819e-18 7.3974907e-19 
-2.4034715e-18 4.1789450e-18 2.3150937e-18 
-7.7030295e-19 3.8151402e-18 -1.1255494e-18 
4.8612091e-19 2.3037021e-18 -1.8210702e-18 
-1.0856225e-18 3.0585721e-18 1.2126944e-18 
-1.1567789e-18 2.2008079e-18 -9.9968106e-19 
-9.2557602e-19 3.4045317e-18 1.6414824e-18 
-1.6664672e-18 9.5511288e-19 7.0690095e-19 
-6.5218295e-19 2.0630325e-18 -6.1811102e-19 
-2.2051430e-18 2.8512955e-18 -7.9300416e-20 
0.0000000e+00 0.0000000e+00 0.0000000e+00 
-7.8762577e-19 2.4787609e-18 1.4357321e-18 
-5.6231180e-19 3.6891672e-18 -2.3193180e-19 
-2.0560728e-18 2.5120404e-18 -5.4392006e-19 
-1.4529823e-18 3.6146023e-18 1.9875022e-18 
-8.8904607e-19 1.6803472e-18 1.2875413e-18 
0.0000000e+00 0.0000000e+00 0.0000000e+00 
-7.1063055e-19 2.1632971e-18 2.0792523e-18 
-1.3100452e-18 2.4558349e-18 1.7767666e-18 
-7.6182130e-19 4.3804098e-18 7.2640720e-20 
-1.0303892e-18 3.8541993e-18 1.7157319e-18 
0.0000000e+00 0.0000000e+00 0.0000000e+00 
-1.9350346e-18 1.6997674e-18 1.5593609e-18 
-1.8821792e-19 2.5086361e-18 3.3450160e-19 
-2.5707530e-19 3.3083692e-18 9.0043025e-19 
-1.7514245e-18 3.8838810e-18 -8.4391415e-20 
-1.5195953e-18 2.1076028e-18 1.0832726e-18 
-9.8075548e-19 3.9434421e-18 5.1142608e-19 
-1.3058007e-18 4.2405344e-18 7.4792983e-19 
-8.3706139e-19 1.7225207e-18 -2.8819515e-19 
-2.3503297e-18 3.5624791e-18 -1.0138925e-19 
-1.7793242e-18 3.9966733e-18 1.3397097e-18 
-7.5425394e-19 1.5652508e-18 2.0097435e-18 
-4.9784573e-19 4.0074618e-18 7.3733934e-19 
-1.7507143e-18 2.8578019e-18 1.3598659e-18 
-2.3226171e-18 3.1895675e-18 -1.9155015e-18 
-5.3124248e-19 3.1558822e-18 -1.5365762e-18 
-4.0017985e-19 1.5580537e-18 -4.8795400e-19 
-1.9035875e-19 1.9319843e-18 1.1248666e-19 
-7.1795927e-19 1.3665787e-18 1.7050424e-18 
-1.7036134e-18 2.0424241e-18 2.5240855e-19 
0.0000000e+00 0.0000000e+00 0.0000000e+00 
-1.5468880e-18 4.7482239e-18 1.0320064e-18 
0.0000000e+00 0.0000000e+00 0.0000000e+00 
-8.9378768e-19 2.4233999e-18 3.4028283e-18 
-4.9942058e-19 1.5439571e-18 1.6766257e-18 
2.8948724e-19 1.1509143e-18 4.4908602e-19 
-4.9947993e-19 2.0184113e-18 1.0174300e-18 
-1.8588992e-18 3.1238652e-18 -9.1697303e-19 
-6.1670714e-19 3.9839248e-18 1.6871670e-18 
-1.2256737e-18 1.4978782e-18 6.0590008e-19 
-4.9601730e-19 3.2945756e-18 2.7576167e-18 
-1.0349974e-18 2.3045084e-18 1.5887352e-18 
-1.9117099e-18 3.4259215e-18 9.1132091e-19 
3.5994642e-20 1.6483635e-18 3.9526908e-18 
-1.8682854e-18 3.7851677e-18 1.0807284e-18 
-1.4964259e-18 3.4387236e-18 3.7469371e-19 
-2.3658876e-20 2.3343171e-18 9.6912150e-19 
-1.3739610e-18 2.7506506e-18 1.7574453e-18 
-1.8143330e-18 4.3115995e-18 7.9567377e-19 
0.0000000e+00 0.0000000e+00 0.0000000e+00 
-1.7702401e-18 4.5979637e-18 1.7811355e-18 
-1.1306846e-19 2.1329549e-18 1.7803611e-18 
-1.9469729e-18 3.6940596e-18 9.2456691e-20 
-4.4934064e-19 4.2826767e-18 -9.6362436e-19 
-1.2589752e-18 2.4389697e-18 1.2108990e-18 
-8.2307992e-19 3.5264658e-18 8.3369058e-19 
-8.1245721e-19 1.6768657e-18 -5.1000027e-19 
-1.0939663e-18 2.4598788e-18 9.9520809e-19 
-9.9419944e-19 2.5321539e-18 8.3564893e-19 
-5.7794546e-19 1.9023305e-18 2.6651395e-18 
-1.0305728e-18 4.0216731e-18 1.7401373e-19 
-6.0010428e-19 7.9240237e-19 1.0744106e-18 
-2.8916541e-18 2.4658467e-18 5.2474673e-19 
-1.7952226e-18 2.5693303e-18 3.9361084e-19 
-1.1146818e-18 1.1693806e-18 2.0715589e-18 
-1.0186170e-18 2.0263754e-18 1.3691709e-18 
-1.5043914e-18 3.4173974e-18 1.1589754e-18 
-3.7591326e-20 1.5651389e-18 2.0129368e-18 
-2.6506085e-18 1.5732153e-18 1.4970827e-18 
3.0375138e-20 2.2717488e-18 1.1366315e-18 
-1.5807038e-18 2.3767517e-18 2.1533710e-18 
-2.3891248e-19 2.1782819e-18 1.8533424e-18 
-2.5482271e-19 2.0100011e-18 8.8193656e-19 
-4.2116622e-19 1.9743858e-18 1.7528698e-18 
-5.9904027e-19 1.5046054e-18 1.5689599e-18 
-1.2957037e-18 2.7779544e-18 -5.8368123e-19 
-3.5577739e-19 3.8698896e-18 1.1784044e-20 
-8.3006179e-19 3.3968850e-18 8.4388837e-19 
-1.5017662e-18 4.4664841e-18 1.0863110e-18 
-9.0432803e-19 2.2542409e-18 4.5117093e-19 
-3.8618961e-19 1.1511736e-18 1.7882814e-18 
-1.1859305e-18 3.5142731e-18 8.4142182e-19 
-9.8114601e-19 2.8428916e-18 -4.4992046e-21 
-1.3300014e-18 4.0737144e-18 1.3445626e-18 
-1.6689236e-18 3.9875342e-18 7.5308932e-19 
-7.6489934e-19 2.8903080e-18 1.6498077e-18 
2.6182983e-19 2.6255784e-18 -1.0160034e-18 
6.7139976e-19 2.5917771e-18 9.1053364e-19 
-1.3086118e-18 3.3537006e-18 3.7556593e-19 
-9.2768006e-19 3.5777059e-18 7.3049473e-19 
-8.6015058e-19 2.2273294e-18 2.3303303e-18 
-1.4058501e-18 4.1150800e-18 7.2467846e-19 
2.6468371e-19 9.9427823e-19 3.0905412e-19 
-4.1380429e-19 7.5164124e-19 2.8357755e-18 
-6.7820766e-19 3.2420509e-18 -6.5144764e-20 
-5.5403534e-19 2.5563266e-18 6.5233996e-19 
-2.9146526e-18 4.1029804e-18 9.8747746e-19 
5.3645315e-19 4.6937276e-18 1.4697914e-19 
-6.3820314e-19 3.7714171e-18 7.1065651e-19 
1.0758783e-19 4.9191471e-18 2.2980606e-18 
6.0252573e-20 3.0352135e-18 -5.9917371e-20 
1.1563268e-18 9.4482689e-19 1.7853056e-18 
-6.4676063e-19 2.8139816e-18 7.6026429e-19 
-1.2953815e-19 1.2891488e-18 2.4285857e-18 
-1.2224312e-18 4.0329546e-18 6.0192031e-19 
-1.2910176e-18 3.9158656e-18 1.3281152e-18 
-8.4587810e-19 4.6620900e-18 1.3444954e-18 
8.1167801e-19 3.5616933e-18 6.1190262e-19 
1.5327896e-20 1.7663791e-18 2.1919022e-19 
-1.9982056e-19 1.7842898e-18 1.1625599e-18 
-8.5414913e-19 2.4362647e-18 1.1098147e-19 
-2.0805075e-18 2.8623483e-18 1.8732264e-19 
-1.8002918e-18 3.0818781e-18 -9.7539091e-19 
-3.6718240e-19 3.4953125e-18 -4.3421533e-19 
-2.9247330e-18 1.4845257e-18 -3.9307669e-19 
-1.7492558e-18 2.8374189e-18 2.8803034e-19 
-1.0304133e-18 8.4296084e-19 -2.6966440e-20 
-9.0004147e-19 3.7402547e-18 3.2176814e-19 
-9.6790142e-20 2.2821748e-18 2.2462238e-18 
-1.2882941e-18 3.3989997e-18 -1.1034745e-20 
-1.9468759e-18 2.3337149e-18 2.1268946e-18 
-4.6553430e-19 -1.8427705e-19 9.1121989e-19 
-1.1470618e-18 3.0319147e-18 1.0834364e-18 
-4.5821825e-19 3.3541857e-18 6.5876742e-19 
4.3120566e-19 1.4193124e-18 5.1278120e-19 
-1.3163861e-20 4.9999935e-19 -2.6554457e-19 
-8.7549137e-19 3.7405926e-18 7.1535675e-19 
-1.8235035e-18 3.1589362e-18 4.8602662e-19 
-1.8401460e-18 2.6673934e-18 3.4521277e-19 
-3.7846731e-19 1.7968774e-18 -5.8348943e-19 
-3.2598415e-19 -1.8700194e-19 6.5280505e-19 
-9.9161616e-19 3.7932241e-18 2.2360473e-19 
-8.0201855e-19 2.9609524e-18 4.5442377e-19 
-5.4232965e-19 2.1940438e-18 -3.3610745e-19 
-2.9935891e-19 1.9420044e-18 1.4619366e-18 
-6.7522335e-19 -5.2385586e-19 6.3335467e-19 
-1.5577998e-18 2.5850230e-18 1.5406307e-18 
-1.8070277e-18 3.1923005e-18 6.2699210e-19 
-3.1673285e-18 1.2518892e-18 1.3689930e-18 
-1.5172783e-19 2.6876850e-18 9.6126069e-21 
-5.9769535e-22 2.1516122e-18 8.8825797e-19 
-1.2440185e-18 -1.0281392e-19 2.2359128e-18 
-7.6447800e-19 2.4858339e-18 4.5399617e-20 
-5.2698229e-19 3.0720276e-18 1.4435944e-18 
3.3216792e-19 1.3159321e-18 5.7380894e-19 
-1.0030131e-18 7.2001647e-19 6.8475159e-19 
-1.1212206e-18 4.3774324e-18 5.3781350e-19 
-8.4429110e-19 3.4549384e-18 3.2464885e-19 
2.9812556e-19 2.9528832e-18 -4.5254472e-19 
-8.0937131e-19 2.8379502e-18 4.3543904e-19 
-6.8547956e-19 4.7722391e-19 -3.5860818e-19 
7.4513712e-19 4.6948336e-18 -1.5345903e-18 
-9.6690465e-19 2.3505121e-18 2.3000204e-18 
-1.0166184e-18 3.7269615e-18 1.0274433e-18 
1.9791391e-19 9.6884387e-19 4.5258675e-19 
-2.1594602e-18 3.7638583e-18 1.6437689e-18 
-1.8054659e-19 2.1120545e-18 8.8395281e-19 
-2.1903727e-19 5.3365650e-19 2.3861425e-18 
-1.4008714e-18 3.2364083e-18 3.0869279e-19 
-1.3422791e-18 2.3723468e-18 4.3936391e-19 
3.5028811e-19 3.6093282e-18 6.3750055e-19 
-4.2218148e-19 3.0180466e-18 2.5821239e-19 
-1.0974133e-18 4.8535517e-18 1.6569637e-19 
-3.4941967e-20 3.7616535e-18 3.2203674e-18 
-6.6542193e-19 4.3130146e-19 4.7883164e-19 
-5.3734759e-19 -2.5407359e-19 -5.0344228e-19 
6.8659331e-19 3.3551467e-18 1.3168075e-18 
-1.3629578e-18 1.6980507e-18 1.4583415e-18 
-2.2359070e-18 3.1463839e-18 9.0455881e-19 
-1.5392521e-18 3.5356586e-18 1.1954186e-18 
-8.4765587e-19 4.4556919e-18 4.2146827e-19 
-1.6777025e-18 3.6399876e-18 -7.8430531e-19 
-7.4976555e-19 1.2307714e-18 8.0279533e-19 
1.0099827e-18 2.4183283e-18 6.7452123e-19 
-1.8595589e-18 2.6703198e-18 -1.1432343e-20 
-1.7455624e-18 2.8779504e-18 1.3810530e-18 
-4.4365816e-20 3.3475065e-18 8.7746110e-19 
-2.2126935e-18 2.1733101e-18 4.7927067e-19 
-5.9263143e-19 3.2122509e-18 -9.0997764e-20 
2.5125360e-19 7.7120897e-19 1.0521726e-19 
-5.2150413e-19 7.3409508e-19 9.8404887e-21 
4.5841052e-19 2.1367163e-18 -8.3288092e-20 
8.8401433e-19 1.0575988e-18 -8.7712875e-20 
-2.6639197e-19 1.5376179e-18 9.9241645e-19 
1.2370517e-19 4.2928887e-18 7.4341855e-19 
-6.7087594e-19 2.7988080e-18 1.1573357e-18 
1.1652636e-18 2.0635540e-18 -2.7031464e-19 
9.0173867e-20 1.4480795e-18 -1.1670110e-19 
-3.4325705e-19 2.5895942e-18 5.3730261e-19 
-1.5370882e-19 2.9600396e-18 2.4009168e-19 
-3.4472519e-19 1.1316910e-18 9.5695781e-19 
-8.2480790e-19 3.7362880e-18 -1.4869079e-18 
-9.2391763e-19 2.6101765e-18 8.6027657e-19 
-5.7728418e-20 2.7380656e-18 1.4522127e-18 
-1.5227496e-18 3.6088211e-18 5.0918973e-20 
-1.3314943e-18 3.0612387e-18 9.3319229e-19 
-1.3968969e-18 3.2746612e-18 1.2025854e-18 
-9.4371258e-19 1.4361321e-18 1.7486354e-18 
-5.2772438e-19 6.8094180e-19 -1.2102043e-18 
-1.6637371e-18 4.0239636e-18 6.9075842e-19 
-2.7123493e-19 1.3041048e-18 -1.0157572e-18 
1.1052703e-18 1.4426421e-18 4.1856401e-19 
2.5860130e-20 1.6601884e-18 1.2381603e-18 
-3.3466159e-19 2.8737650e-18 -3.4218120e-19 
-4.9204249e-19 1.7139617e-18 2.1324469e-20 
-9.2165732e-21 3.0854927e-18 -3.1700467e-19 
-9.9419686e-19 2.8938852e-18 9.1954422e-19 
-5.1152627e-19 3.5569234e-18 7.7455719e-19 
3.8509903e-19 3.8415463e-18 1.2321402e-18 
2.4547515e-19 4.1850194e-18 5.8219365e-19 
-1.3854945e-18 1.1981018e-18 1.1532057e-22 
-1.4443866e-18 3.3227963e-18 1.2681466e-18 
-1.1349666e-19 2.3557961e-18 9.2120546e-20 
-5.4574947e-19 1.0375248e-18 6.1423790e-19 
-6.8637607e-19 2.2716235e-18 2.7504833e-19 
-1.3420605e-18 1.2661353e-18 1.5484914e-18 
-5.3315916e-19 3.9136562e-18 2.0073647e-18 
1.2818461e-18 2.3449873e-18 -6.9102200e-21 
-2.1270102e-19 3.6219406e-18 9.6552657e-19 
-9.9133688e-19 4.1949777e-19 9.0853300e-19 
-7.9308511e-19 2.1141202e-18 -1.0033978e-18 
-1.0345795e-18 9.4887563e-19 9.3457120e-19 
-1.3005364e-18 1.4621902e-18 1.4690014e-18 
-1.7966387e-19 3.0275758e-18 1.4086773e-18 
-5.5154113e-19 2.5288245e-18 -2.3277509e-19 
-1.1543695e-18 3.1320731e-18 7.9834691e-19 
-1.2673615e-18 2.7333865e-18 8.9173193e-19 
-2.1829633e-18 4.4714299e-18 -1.0976739e-20 
-2.5422065e-19 2.7654402e-18 1.4975928e-18 
7.8226770e-19 3.1440107e-18 1.0918345e-18 
-1.3836803e-18 1.9083942e-18 -3.1108619e-19 
-2.0064693e-18 3.6086062e-19 4.3878985e-19 
-2.1895432e-19 3.4384142e-18 -5.0790332e-19 
-1.3605891e-18 1.7102114e-18 1.1348032e-18 
-8.2487417e-19 2.6994264e-18 1.2965397e-18 
-1.3485255e-18 1.3373057e-18 1.1977475e-18 
4.8209389e-19 2.9686726e-18 -8.2854101e-19 
-1.9031389e-18 3.0679939e-18 1.3802514e-18 
-1.5682565e-18 2.8067386e-18 2.2962425e-19 
-9.1390998e-19 3.7301718e-18 1.6427217e-18 
5.4527384e-19 3.5353480e-18 -7.1651708e-19 
-3.1445336e-20 3.6106252e-18 5.9162398e-19 
-1.6796780e-18 5.1689255e-19 1.9558206e-18 
-3.6898808e-19 1.3554755e-18 1.5859426e-18 
-1.2807228e-18 1.5590817e-18 4.7087220e-19 
-1.0147426e-18 2.8744516e-19 2.8243009e-19 
4.7645438e-19 2.9433537e-18 5.9305593e-19 
1.0519122e-18 5.0374170e-18 3.2080427e-19 
-6.2113876e-19 7.6233389e-19 1.4561958e-18 
-7.8091789e-20 3.3029281e-18 5.1910081e-19 
-1.3144905e-18 -2.9746940e-19 1.6871274e-18 
-5.5894436e-20 2.6434482e-18 -1.4859084e-18 
-1.5114600e-18 2.4068985e-18 1.0584455e-18 
5.1616851e-19 2.1782190e-18 2.9869858e-18 
-9.7586095e-19 2.7733060e-18 1.5339367e-18 
3.4898055e-20 4.2070203e-18 -6.8757801e-19 
-1.4312964e-18 2.6696892e-18 -6.4604476e-19 
9.3927774e-20 3.2494721e-18 1.5570083e-19 
1.0488837e-18 2.0524148e-18 7.8559142e-19 
-1.4856165e-18 1.9997842e-18 1.2280935e-18 
-1.1219492e-18 3.1669321e-18 7.8980223e-19 
6.1147042e-19 3.0899034e-18 4.6403654e-19 
-6.0442775e-19 -1.4323282e-18 5.3848770e-19 
1.4689471e-19 3.6004959e-18 -2.0767176e-19 
-1.6888931e-18 2.0025368e-18 1.8589122e-18 
4.7416076e-19 3.3226853e-18 2.4643856e-19 
-2.2696774e-19 4.2046542e-18 1.7157560e-18 
1.4580288e-18 1.0109567e-18 1.3571099e-18 
-1.1943655e-18 3.5078403e-19 1.0840516e-18 
-7.5874625e-19 3.7053738e-18 1.5185318e-18 
3.9666058e-19 3.7408718e-18 2.2382728e-18 
-1.1564747e-18 2.5069853e-18 5.1271374e-19 
-2.5167510e-18 2.9379611e-18 1.0296150e-18 
-4.4704914e-19 2.6774097e-18 1.8051703e-19 
-5.4747419e-19 2.9264796e-18 -5.4492032e-19 
1.0098737e-19 1.7538611e-18 2.0031485e-18 
1.2813179e-19 2.8895505e-18 1.4077338e-19 
-1.4419501e-18 7.9393824e-19 -2.1098236e-18 
1.7740551e-18 2.8695998e-18 -1.3870735e-20 
-6.9173765e-19 2.5041443e-18 -5.3961184e-19 
1.8674250e-18 2.2051915e-18 -1.7035632e-18 
-3.3210262e-19 1.1603113e-18 1.7068373e-18 
-1.9470862e-18 2.0883845e-18 2.6374494e-19 
-2.2124928e-19 1.3084553e-18 1.4865234e-18 
8.9451415e-20 -1.4124239e-19 -2.9378113e-19 
1.4295765e-18 2.2932615e-18 -8.3464344e-19 
-9.1994685e-19 1.9673846e-18 -2.7026542e-19 
-3.4675993e-19 2.7695510e-18 -6.0606278e-19 
-1.3696867e-18 4.7864506e-19 1.4658141e-18 
1.0412471e-18 3.3954614e-18 8.8110441e-19 
-2.6812773e-19 1.1332594e-18 -2.5503604e-19 
1.8789612e-18 3.6694059e-18 -3.5077387e-19 
-5.5497098e-20 4.7647930e-19 -1.3196431e-18 
3.9351399e-19 3.9800742e-18 3.0291333e-19 
1.3784997e-18 2.4802560e-18 -3.0950555e-19 
-1.1601508e-18 1.7406029e-18 1.2631936e-18 
-6.0787833e-19 2.5576594e-18 1.1928531e-19 
9.5159447e-19 2.9749863e-18 -4.8519135e-20 
1.7337241e-18 1.4480676e-18 8.4024490e-20 
1.7717724e-19 2.5718458e-18 -1.3669461e-18 
5.3441777e-19 3.4257979e-18 1.1897347e-18 
-6.8311868e-19 1.3430544e-18 -3.5615277e-19 
-5.5594793e-19 7.6270452e-19 1.4297774e-18 
-2.5643607e-19 2.1790289e-18 -6.2783003e-19 
-1.7444617e-18 2.2578939e-18 3.3559943e-19 
2.9870996e-19 2.6605969e-18 -1.7356172e-19 
-6.2312141e-19 2.3642499e-18 9.7342097e-21 
5.1562727e-19 2.5439330e-18 -2.4479226e-19 
-1.3217394e-18 1.6278837e-18 1.1560759e-18 
-2.5442303e-20 3.6256819e-18 -7.2371846e-19 
9.0170028e-19 2.4295717e-18 6.0995717e-20 
5.1450246e-19 1.6877556e-18 4.5979760e-19 
-1.2612858e-18 1.9992368e-18 -6.0886251e-20 
6.4063593e-19 1.7953668e-18 -2.3797500e-19 
3.0734844e-19 4.5578566e-18 -9.1549565e-20 
3.3258986e-19 1.8003555e-18 -4.0090753e-19 
-2.1911492e-19 2.1044887e-18 2.9811367e-19 
9.7341953e-19 3.0496251e-18 8.5362790e-19 
-9.2060673e-19 2.6906082e-18 1.1465413e-18 
-1.0071405e-18 2.3707764e-18 6.4583620e-19 
-1.1061229e-18 1.9453803e-18 -5.5649020e-19 
-8.7541734e-19 1.4554177e-18 -7.9816126e-19 
1.2531730e-18 3.1051022e-18 -1.4870269e-19 
7.4616117e-19 3.0421461e-18 7.2834151e-20 
-1.4858361e-18 2.8550809e-18 6.5684298e-19 
-9.7686835e-19 3.1007668e-18 1.2076546e-18 
-6.8757527e-19 1.8015318e-18 -7.7527865e-19 
-1.0433174e-18 3.0288686e-18 9.0033440e-19 
6.7801017e-19 3.3522532e-18 8.9617730e-19 
-3.9715371e-19 3.4495198e-18 7.6638397e-19 
3.6652924e-19 1.8423244e-18 -3.0025682e-19 
5.1377666e-19 1.6825587e-18 1.5973826e-18 
-8.3671935e-19 2.5340347e-18 8.8781450e-19 
6.7711516e-19 4.0825710e-18 -5.2977124e-19 
-6.3466167e-19 4.1844524e-18 -3.5092801e-19 
9.8208983e-19 3.4552641e-18 1.0764883e-18 
-4.1245596e-19 8.4004487e-19 1.6246250e-19 
1.8046824e-19 2.8993998e-18 -4.2989941e-19 
4.8619205e-19 2.6741405e-18 1.3647216e-19 
3.6862647e-19 2.2277800e-18 -1.6419540e-20 
1.3857729e-18 3.4180313e-18 5.1738234e-19 
-1.3378225e-19 1.4615255e-18 1.1144074e-18 
-2.8238762e-19 3.1802119e-18 1.1343215e-18 
-2.9827740e-19 3.1547389e-18 1.3522731e-18 
-1.1290956e-19 3.9209581e-18 1.2682386e-18 
7.4128251e-19 3.8190892e-18 -1.9175267e-19 
5.4770115e-19 1.7738694e-18 -1.6019854e-19 
1.9090361e-18 4.6507312e-18 1.1294561e-18 
1.1083729e-18 2.9171062e-18 1.2561010e-19 
-9.1145708e-19 1.4833869e-18 4.9302637e-19 
9.7919250e-20 3.0513063e-18 1.4713519e-18 
1.9772882e-18 3.1808637e-18 1.1058975e-18 
-1.5894469e-18 2.2049748e-18 -3.5176559e-19 
1.2755097e-18 4.3824418e-18 5.8745209e-19 
-1.2109277e-19 2.4165070e-18 -1.1208631e-18 
-1.3993993e-18 6.4883944e-19 9.8270184e-19 
4.4842960e-20 2.9241620e-18 -6.1173057e-20 
2.7370990e-19 2.2973986e-18 -5.4898313e-19 
-3.3490178e-19 1.6828756e-18 6.7038827e-19 
9.2795747e-19 2.4828827e-18 4.3227487e-19 
-1.9305796e-18 3.6607687e-19 -2.3580231e-19 
-2.0705447e-18 3.2622390e-18 1.1077988e-18 
-6.7310106e-19 2.2585846e-18 -3.2450292e-20 
6.6050930e-19 1.1075227e-18 2.4446694e-18 
-7.4140689e-19 1.8475110e-18 1.4153622e-18 
1.2469352e-18 3.7639456e-18 4.6360981e-19 
1.1402290e-18 3.8145244e-18 1.7257486e-19 
5.9470786e-19 3.4540324e-18 -8.6062218e-19 
-3.4873573e-19 1.6858308e-18 5.7214325e-19 
1.4183003e-19 2.4501150e-18 1.4602211e-18 
2.8334899e-19 2.3851180e-18 1.5203908e-18 
1.0877171e-18 4.2562665e-18 1.0802355e-18 
1.1011074e-18 3.0108080e-18 -1.7927729e-18 
-4.0366732e-19 1.4290504e-18 1.9640626e-19 
-2.8345156e-19 2.0096185e-18 8.8583372e-19 
-8.8241177e-19 2.6019822e-18 2.9031661e-18 
-2.0733305e-18 2.5574061e-18 1.0548521e-18 
7.8009139e-19 2.9489357e-18 1.4534722e-18 
-6.3128661e-19 2.5313764e-18 7.3227492e-19 
8.6900193e-19 2.0134050e-18 3.5117361e-19 
-1.8663868e-18 3.7872588e-18 -6.5156924e-19 
7.5199786e-19 2.3551224e-18 2.6453337e-19 
-7.3232631e-19 9.3327170e-19 2.0615773e-18 
-9.5090243e-19 1.2866429e-18 1.6902573e-18 
-8.0741451e-19 3.0017137e-18 7.8094727e-19 
-1.5001590e-18 1.6266726e-18 7.1852579e-20 
-4.9426735e-19 2.5456781e-18 -2.3853684e-18 
4.3815343e-19 2.0501394e-18 1.7744027e-18 
3.1719776e-19 1.0045014e-18 -1.7068111e-18 
1.4912964e-18 3.7242765e-18 1.3905035e-18 
-2.0743324e-18 2.0623970e-18 1.0460674e-18 
1.6677335e-18 1.7647402e-18 9.4169136e-19 
-3.0169515e-19 3.5475022e-18 1.0478604e-18 
-7.8812419e-19 5.7159809e-19 3.8814558e-19 
-1.4300694e-18 2.2843670e-18 -4.1019093e-19 
-1.1344948e-18 2.2885403e-18 1.4692255e-18 
-1.0209461e-19 1.9777516e-18 -4.5004974e-19 
3.8069689e-20 2.0221512e-18 -5.1006650e-19 
1.0779331e-18 2.6521195e-18 4.8442871e-19 
1.9479109e-18 2.4402089e-18 5.4470107e-19 
5.5571426e-19 3.8397703e-18 -5.4272160e-20 
-5.0929081e-19 1.3713938e-18 -1.1655501e-19 
6.4615984e-19 2.5961762e-18 1.8510222e-18 
1.3951371e-18 3.1943275e-18 1.9858603e-19 
-8.1603673e-19 1.8282149e-19 2.4621887e-19 
-8.0957092e-19 2.9024188e-18 1.4530834e-18 
-2.2761823e-18 1.3543528e-18 -4.6315771e-19 
2.4772463e-18 4.1761206e-18 8.6163294e-19 
8.4897584e-19 2.2457040e-18 -6.5149577e-19 
3.4795218e-19 4.0365388e-18 -1.1446562e-18 
-1.7117957e-18 4.4895310e-19 -1.0313626e-18 
-8.4323939e-19 1.4917340e-18 1.1059005e-18 
3.0175608e-19 3.4962770e-18 5.0980764e-19 
-1.2137640e-18 1.6007898e-18 2.0016547e-19 
-8.1759938e-19 2.5271799e-18 3.6462556e-19 
-4.8384818e-19 3.8659014e-18 -6.1215424e-19 
-9.8347494e-19 2.4525206e-18 1.1990877e-19 
1.8119636e-19 3.0715526e-18 2.3998205e-19 
9.7056120e-19 2.6364721e-18 -1.7498241e-18 
1.6476591e-18 2.5685095e-18 3.7212808e-19 
-2.6399260e-19 1.4202651e-18 1.9500742e-19 
9.7043030e-19 2.1377987e-18 1.7985535e-18 
-4.7050948e-19 2.0178558e-18 -2.0366661e-18 
2.0820359e-20 4.9629232e-18 1.3089773e-18 
-2.5592818e-19 2.7150576e-18 1.5188559e-18 
-2.0529604e-19 2.5642202e-18 1.3928214e-19 
-2.6546741e-20 1.9272446e-18 4.0655619e-19 
2.2063027e-18 1.3122839e-18 1.8421184e-18 
1.2581394e-20 2.3623513e-18 2.8370444e-19 
-6.5643461e-19 1.3934015e-18 1.0783852e-19 
-4.0783698e-19 1.8196865e-18 -3.4540969e-19 
-3.9031955e-20 3.0559689e-18 1.1025065e-18 
-2.1944404e-19 2.2037121e-18 -1.0051893e-18 
2.0421605e-18 5.1586279e-18 8.8362783e-19 
5.2793546e-19 2.7526916e-18 -9.9995693e-19 
-3.2916109e-19 1.0520324e-18 4.5426123e-19 
-4.0337080e-19 3.8078781e-19 1.0632930e-18 
9.2500642e-20 3.7692222e-18 -2.1453880e-18 
-2.9543862e-18 9.9456836e-19 -7.8690369e-19 
-5.0510859e-19 1.0447891e-18 1.9470040e-19 
-1.8311452e-18 1.5422350e-18 1.4976751e-19 
-1.7359622e-18 1.7628027e-18 -3.3956439e-19 
-1.7463526e-20 7.0334371e-19 -2.0694996e-18 
-5.5255830e-19 1.3955463e-18 -1.2257467e-18 
-1.5215041e-19 1.1961654e-18 1.6102950e-18 
-1.2037163e-18 3.2352655e-18 1.0292164e-18 
-1.5942516e-19 2.9350901e-18 -1.3691690e-18 
-9.3844354e-19 9.3527172e-19 6.5962649e-19 
-4.8102848e-19 1.4984551e-18 1.5470019e-18 
1.6645550e-18 1.7620206e-18 -2.5212537e-18 
-4.0255825e-19 1.3245807e-18 3.9228715e-19 
5.1938324e-19 3.6859470e-18 -1.5483884e-18 
-1.0191135e-18 2.1176560e-18 -9.0887731e-19 
1.0584190e-18 1.6340606e-18 7.8369847e-19 
6.7932554e-19 2.1714992e-18 8.8044505e-19 
4.2944097e-19 7.6087045e-19 -5.1351129e-19 
6.7991548e-19 1.6480575e-18 -2.0412345e-19 
-5.8765971e-19 2.9362900e-18 1.2648355e-19 
1.3782950e-19 2.0670952e-18 7.0135667e-19 
-4.6108386e-19 1.0583587e-18 2.5574098e-19 
2.4748189e-18 1.2982175e-18 -6.4946231e-19 
-1.9780638e-19 1.7164286e-18 2.5693178e-19 
1.7642590e-18 1.9858402e-18 1.9431862e-18 
4.2338441e-19 1.4479405e-18 -1.2363854e-18 
-7.5565188e-19 1.9065721e-18 3.6287775e-19 
-1.0934330e-18 1.8480526e-18 -4.6057908e-19 
2.1363579e-18 1.9575585e-18 -6.5682235e-19 
-1.0996029e-19 1.7305094e-18 -6.5085879e-19 
-1.7473907e-18 -7.6669038e-20 -2.5758800e-19 
-2.3753735e-19 1.0130557e-18 8.8222235e-19 
-1.1024964e-18 1.1303657e-18 -1.7812693e-18 
-1.8127774e-19 2.7832998e-18 -2.3284434e-19 
1.7933672e-19 1.5477727e-18 -2.2067105e-18 
3.8450255e-19 2.1671206e-18 -8.2885710e-19 
2.0432532e-18 1.9657517e-18 -3.1937591e-19 
-3.9596249e-19 3.0718764e-18 8.6457971e-20 
-7.3652038e-19 6.8982107e-19 -1.8306572e-18 
5.2751903e-19 1.4935265e-18 4.4838457e-19 
9.3217382e-19 2.7176823e-18 -6.9964735e-19 
-9.3240109e-20 1.8142009e-18 3.5745253e-19 
-2.3160704e-18 1.8451118e-18 -7.7429885e-19 
3.5443624e-19 1.4367446e-18 -1.3013559e-18 
-5.4644994e-19 3.3593984e-18 5.8735107e-19 
4.5968856e-19 1.2313449e-18 5.4592292e-19 
3.4709484e-20 2.0090441e-18 1.1949329e-18 
-6.9567544e-19 1.7524409e-18 1.4302055e-18 
-2.1041647e-19 7.0267261e-19 9.6345314e-19 
4.7303321e-19 -7.6377644e-19 1.9748743e-18 
1.5940210e-19 1.6683582e-18 8.3329218e-19 
1.2979453e-18 2.4359398e-18 -1.0239050e-18 
3.4589883e-19 8.4144581e-19 -1.6021046e-18 
5.2039096e-19 1.5526297e-18 -1.1291059e-18 
1.0755176e-19 2.8765756e-18 -1.3559566e-19 
-1.1550999e-18 1.1274863e-18 -1.4344205e-18 
3.9555684e-19 2.9416193e-18 -1.9904681e-19 
7.9218279e-20 2.1552195e-18 -9.5317914e-19 
-8.6821956e-20 1.0680898e-18 -3.3935380e-18 
-2.5241487e-18 -2.2188494e-19 7.4086463e-19 
6.8824725e-23 2.1181620e-18 4.8530630e-19 
-6.3290391e-19 2.2900572e-18 -2.7801434e-19 
-1.2240800e-18 1.2106826e-18 -1.2708044e-18 
1.9181916e-19 2.2591781e-18 1.3131458e-18 
-1.8078837e-18 1.9074165e-18 1.8113558e-18 
5.8565706e-19 2.1242492e-18 1.1033234e-18 
-1.0078738e-19 9.0601020e-19 -2.0685651e-18 
-8.5409521e-19 2.4110772e-18 2.2997774e-19 
-9.1923465e-19 4.6534591e-19 -1.8245871e-18 
1.3261888e-19 3.4113772e-18 -1.4308515e-18 
-6.5501605e-19 1.6207714e-18 -1.3049445e-19 
-1.7783891e-18 1.5700408e-19 -1.1053797e-18 
-2.7109723e-19 1.4527143e-18 -2.5721357e-18 
-1.5408419e-18 1.2685840e-18 -1.7819795e-18 
-1.7842854e-18 5.3849199e-19 1.2130813e-18 
-2.3078434e-18 -1.5001837e-19 -1.5686314e-18 
2.5424114e-18 -1.4801795e-19 -7.0479785e-19 
-3.0027450e-19 7.4979068e-19 1.4946254e-18 
1.4731657e-18 2.2296471e-18 -2.4067575e-19 
-3.0041566e-19 1.3618147e-18 8.0337606e-19 
-3.5398540e-19 1.0599697e-18 3.5564747e-19 
-3.5985208e-19 8.1517372e-19 2.2990102e-19 
-9.5821295e-19 2.2767423e-18 -5.0193969e-20 
-5.5208781e-21 1.4684501e-18 1.3474428e-18 
-1.4990818e-19 1.6569394e-18 -1.7515246e-19 
9.7349966e-19 1.0693952e-18 9.5147391e-19 
4.3162394e-20 2.2101062e-18 3.5945868e-19 
-1.0208118e-19 1.5213431e-18 -1.1670343e-18 
4.1158949e-19 2.2088059e-18 -1.7011144e-19 
-3.5760031e-18 -8.5776861e-19 7.1822598e-19 
-1.1814788e-18 3.0861774e-18 -2.2157902e-19 
-2.1369905e-19 1.8890442e-18 5.3352369e-19 
-1.3029585e-18 1.0728272e-18 -2.9058902e-18 
3.4637201e-19 1.6638171e-18 9.4263476e-19 
-2.3532997e-18 4.8375430e-19 1.2957067e-18 
4.0083213e-19 2.0464417e-18 -1.3286832e-18 
-9.8774847e-19 9.3198802e-19 -3.1399635e-18 
1.5077942e-18 9.5198873e-19 -6.4995670e-19 
-8.3930982e-19 8.5043576e-19 -2.2824306e-18 
-1.0957278e-18 9.3129773e-19 -3.7749832e-19 
-1.3781784e-19 1.6471463e-18 -1.8286527e-18 
-1.9287811e-18 -7.3330585e-19 2.2004672e-19 
-3.9915526e-20 2.3545849e-18 8.7452378e-19 
-8.7118466e-19 1.6882726e-18 -7.9425004e-19 
-1.6371867e-18 -8.9995017e-19 -1.7447328e-18 
1.6812356e-18 3.5430288e-18 -1.2736842e-19 
2.6871283e-19 1.6471366e-18 -1.5928516e-18 
-2.4565809e-19 1.8867436e-18 -6.5206022e-19 
-5.3905758e-19 1.4775549e-18 -2.0699790e-18 
-2.6713012e-19 9.7620961e-19 -1.2636613e-19 
-1.6689541e-18 6.3414809e-19 -3.4792780e-18 
-1.2521358e-18 1.9240939e-18 1.4632160e-18 
-1.8570364e-18 2.1066406e-18 -1.0753961e-18 
2.5726483e-19 3.3584567e-19 -1.2256167e-18 
-7.9187639e-19 2.4677422e-18 -3.4127272e-19 
1.4428112e-18 1.1961787e-18 -1.6848624e-18 
1.0633239e-18 8.7925660e-19 2.1665013e-19 
3.3900984e-19 2.9013993e-18 -8.8368077e-19 
-1.5225463e-18 2.4095577e-18 1.7468942e-18 
5.2379299e-19 6.3964620e-19 -2.4055014e-18 
-5.6428023e-19 5.3112192e-19 -2.0962605e-18 
-2.9364465e-19 2.2948879e-18 1.1400493e-18 
-4.0216363e-19 2.0375787e-18 -2.5518889e-19 
-3.1912237e-18 5.2210363e-19 1.0965883e-18 
-5.9561793e-20 1.9651466e-18 1.0163020e-18 
-1.3727932e-18 1.5722871e-19 -2.7679442e-18 
-3.3394189e-19 1.2408759e-18 -1.0083289e-18 
-5.3345622e-19 2.2119763e-18 -1.7055256e-19 
-2.2514303e-18 5.6872198e-19 1.6985775e-18 
-1.3125392e-19 1.0537072e-18 8.3106015e-20 
-5.5254683e-19 2.4182836e-18 -8.5827412e-19 
-1.3038554e-18 2.8585000e-18 3.4737517e-19 
-9.0702743e-19 7.3093691e-19 -1.1403091e-18 
-1.4969162e-18 8.0301660e-19 -2.9482165e-18 
2.4500283e-19 2.3782197e-19 -7.4505274e-19 
9.5556545e-19 1.4201404e-18 -3.6616352e-19 
1.9513295e-19 1.6613887e-18 -3.3827958e-20 
-1.3000416e-18 7.1165750e-19 -2.9787697e-19 
-1.8554515e-18 7.8568959e-19 7.6706836e-20 
-1.8169345e-18 -1.4886989e-18 4.6318356e-19 
-3.0483919e-19 1.1172109e-18 -3.5062337e-18 
-1.6755962e-19 2.0378980e-18 6.5030929e-19 
2.4886129e-19 1.4140107e-18 1.7885035e-18 
-1.5031245e-18 1.4780924e-18 1.5364371e-18 
6.5643844e-19 2.5686903e-18 -8.6491432e-19 
4.5071929e-19 2.6261080e-21 -9.0109375e-19 
9.4560268e-19 4.9686180e-19 -4.4345142e-19 
-3.6317835e-19 1.6175069e-18 -3.8924943e-19 
-3.1561035e-19 -4.1194280e-19 -1.3573866e-18 
5.4525854e-19 2.2652420e-18 -1.1761638e-18 
-1.3785499e-18 1.8613210e-19 7.8675123e-19 
-7.3962437e-19 1.2236107e-18 -5.1021850e-19 
-7.8724454e-19 1.1920904e-18 -9.0291293e-19 
1.8673424e-19 1.0916912e-18 1.2636287e-18 
-1.4113605e-18 -6.4811865e-19 4.7248696e-19 
5.4112429e-19 1.8483551e-18 7.5831312e-19 
6.4100136e-21 2.4973153e-18 7.0037052e-19 
-5.7692208e-19 7.3188057e-19 -9.7795041e-19 
-2.6697405e-18 1.0343835e-18 1.7403630e-18 
-7.6181163e-19 1.2075141e-18 7.4837227e-20 
-2.5765125e-18 -4.8007422e-19 -2.8122408e-18 
-2.9501159e-18 1.2943718e-19 6.0753118e-19 
-5.5110241e-19 1.5928634e-18 -4.7007594e-19 
-2.3892900e-19 1.0201098e-18 1.4001528e-18 
1.0204281e-18 2.6846139e-19 -4.0774033e-19 
1.8054604e-19 2.1093286e-18 4.7444614e-19 
-7.3340532e-19 1.1652578e-18 8.4911119e-19 
-8.1987640e-19 -4.6132643e-19 -1.4835944e-18 
-2.8078656e-18 -1.1717769e-18 9.0888341e-19 
-2.1737450e-18 1.4622339e-18 5.4572646e-19 
1.3842638e-18 2.7272165e-18 1.7115267e-18 
-1.7149539e-18 -4.0525359e-19 -1.3546014e-18 
-1.2016849e-18 1.9230564e-19 -5.0481146e-20 
-9.5394397e-19 2.1482445e-18 1.0827418e-20 
2.9342291e-19 2.7748952e-18 -3.8390646e-19 
-1.8471655e-19 3.2732378e-18 -6.0041846e-19 
4.0345173e-19 2.8766490e-18 4.2145744e-20 
-1.0728445e-19 1.1649370e-18 7.9407452e-19 
-6.2485435e-19 4.7464766e-19 -1.6534351e-18 
-7.7824363e-19 -5.9117445e-19 -2.0469459e-18 
-1.7822638e-18 -7.1301831e-19 -1.6844086e-19 
-7.8192928e-19 2.8532471e-19 -2.0722221e-18 
1.0436692e-20 9.9753691e-19 -1.1618948e-18 
-9.1956211e-19 1.0177597e-18 4.3220743e-19 
1.5839339e-19 2.1409006e-18 2.5783968e-18 
-4.2784863e-19 9.9221628e-19 -2.5303732e-19 
-2.7161727e-19 1.7753207e-18 -5.5225695e-19 
5.3547578e-19 1.7656513e-18 1.2166156e-18 
-1.1744724e-18 3.4633920e-19 4.6365322e-20 
3.9047792e-19 1.0490571e-18 -1.7395251e-18 
-2.7508338e-18 -8.9933754e-19 3.3047330e-18 
-7.5929628e-19 8.1033580e-19 1.4668945e-18 
-1.3263596e-18 -2.2396029e-19 -4.5857544e-19 
-1.4214732e-18 -4.9541848e-19 1.0883886e-18 
-1.4548087e-18 -1.0087998e-18 -1.6557301e-18 
1.4107064e-19 1.9206865e-18 -6.2310874e-19 
-5.8089374e-19 1.0998515e-18 8.1384253e-19 
-1.1398900e-18 2.2576481e-19 -1.4859969e-18 
-1.0126113e-18 2.8562911e-18 1.7864525e-18 
3.9977445e-19 7.4920581e-19 -1.2999211e-18 
-2.6672948e-19 -1.4846039e-18 1.0984986e-18 
1.3633568e-18 1.2724978e-18 -1.4574885e-18 
-4.9151000e-19 -2.2772587e-19 1.2206681e-19 
1.4826642e-20 2.4694909e-18 2.1028504e-19 
-1.9941697e-18 -6.5143079e-19 -2.0705278e-18 
8.4207048e-19 -5.0729984e-19 -2.3847793e-19 
-3.0863548e-18 -3.2275453e-19 -8.5225685e-19 
-5.9535709e-19 2.6731702e-18 7.0011347e-19 
-1.6417104e-19 2.1117406e-18 5.1138482e-19 
-1.0066577e-18 2.8708130e-20 -2.2367654e-18 
-5.1768882e-19 -1.0128733e-19 -5.9862384e-19 
7.1573043e-19 9.8973214e-20 -1.1709649e-18 
6.1628704e-20 1.4810815e-18 9.6878938e-19 
-1.6975837e-19 2.0759926e-18 1.9315087e-18 
-1.9746811e-18 3.2515791e-20 -9.9877520e-19 
-4.5970904e-19 1.7290292e-18 -7.3107625e-20 
-3.7540362e-19 -3.1005490e-19 -1.2921138e-18 
-2.8879812e-18 7.1271443e-19 2.2798822e-19 
-3.4795190e-19 1.8037356e-18 -1.3380636e-18 
-8.8693138e-19 1.0420644e-19 3.5118739e-19 
0.0000000e+00 0.0000000e+00 0.0000000e+00 
-3.4288777e-19 1.8085254e-18 6.0844805e-19 
0.0000000e+00 0.0000000e+00 0.0000000e+00 
0.0000000e+00 0.0000000e+00 0.0000000e+00 
0.0000000e+00 0.0000000e+00 0.0000000e+00 
-2.5226244e-18 -1.0652597e-18 -1.8130172e-18 
2.0337401e-19 1.1756983e-18 -1.5940206e-19 
0.0000000e+00 0.0000000e+00 0.0000000e+00 
-1.3929800e-18 -1.6403848e-19 -4.7148049e-19 
-6.6862131e-19 1.4370308e-18 -2.1095300e-19 
-3.4285224e-20 6.3824579e-19 2.4725072e-19 
-2.4262371e-19 -2.2418893e-19 1.7812045e-19 
-2.7973478e-19 -4.7749399e-19 -8.1644045e-19 
2.8919948e-19 1.5006410e-18 5.7591282e-19 
-6.1008236e-19 2.3123038e-18 -3.9864005e-19 
0.0000000e+00 0.0000000e+00 0.0000000e+00 
-7.8426064e-19 2.3572220e-18 1.1392982e-18 
-1.1917624e-18 -1.1274445e-18 2.7386024e-19 
-3.8058963e-19 -5.8232977e-19 -2.9504289e-19 
-2.9632735e-19 2.2752792e-18 -1.8105278e-18 
-2.3821840e-18 -5.7508341e-19 -4.3594217e-19 
-1.8050574e-18 -5.2932239e-19 -2.5941679e-18 
5.4375400e-19 2.6640432e-19 7.0584464e-19 
-1.2865097e-18 1.5198317e-18 1.2130001e-18 
-1.3183391e-19 1.7053854e-18 -1.2116527e-18 
-1.3169679e-18 2.2187220e-19 -1.9832526e-18 
7.5309615e-19 2.2585526e-18 -2.5125756e-19 
0.0000000e+00 0.0000000e+00 0.0000000e+00 
-1.6817344e-19 2.9811406e-19 1.0532547e-19 
-7.0038380e-19 6.6048687e-19 3.0817568e-19 
-5.2972228e-19 1.7522481e-18 9.1153391e-19 
3.6512719e-19 5.5634136e-19 -7.0170274e-19 
-4.0647909e-19 2.4303714e-18 -1.1432104e-19 
1.7861381e-19 9.4588155e-19 -2.6878194e-18 
-1.6556857e-18 -1.4128579e-18 -1.3285523e-18 
-1.7799738e-19 1.6233669e-18 -3.3909501e-19 
-8.7179088e-19 1.7867885e-18 -2.3100182e-19 
1.0638739e-18 4.0037796e-19 -1.3394750e-18 
9.8978726e-19 9.0773405e-19 -2.6632812e-19 
6.4697487e-19 2.6031444e-18 5.8825420e-19 
-1.0002457e-19 7.6149611e-19 -5.8730537e-19 
0.0000000e+00 0.0000000e+00 0.0000000e+00 
0.0000000e+00 0.0000000e+00 0.0000000e+00 
6.4753053e-19 3.0745096e-18 5.9998724e-19 
-1.1766558e-19 -1.8816047e-19 -8.6493824e-20 
6.0365165e-19 1.2591192e-19 -3.0912050e-19 
6.9766465e-19 7.8872633e-19 -1.5082175e-19 
-1.7802210e-19 1.1216768e-18 1.3684447e-18 
-3.2400401e-19 5.5196067e-19 1.3598483e-18 
-7.9374385e-19 1.2385210e-18 -1.8675792e-19 
-5.8373779e-19 -8.4402061e-19 1.1240495e-18 
-2.0885791e-18 -2.2442806e-18 -7.1095243e-19 
0.0000000e+00 0.0000000e+00 0.0000000e+00 
-1.2238599e-18 -1.2120218e-18 2.8761153e-19 
-1.4828336e-18 -3.4840028e-19 2.6671214e-19 
-9.5523127e-19 2.0042979e-18 -1.8561546e-19 
0.0000000e+00 0.0000000e+00 0.0000000e+00 
-2.0968344e-18 -5.1665887e-19 -1.5684860e-18 
2.1710730e-19 3.4842514e-18 -5.7548180e-19 
-9.0830318e-20 -1.3229505e-19 3.8099224e-21 
-2.2475587e-18 1.3624932e-18 5.3446264e-19 
2.3465710e-19 1.1394084e-18 -1.5335565e-19 
-1.1529350e-18 1.4717902e-19 2.6950015e-19 
-1.2478116e-18 -1.9009059e-18 -2.1413679e-18 
8.0867803e-19 1.6938127e-18 -2.8323454e-18 
-6.8998020e-19 3.1595334e-19 -1.2161669e-19 
-1.1358360e-18 -4.4594124e-19 -9.5256051e-19 
-8.7218865e-19 1.6240444e-18 -3.3705017e-19 
0.0000000e+00 0.0000000e+00 0.0000000e+00 
9.9590436e-19 2.1754883e-18 1.4744200e-19 
1.6353267e-20 9.9207431e-19 3.4162042e-19 
-2.5356069e-19 1.3412021e-18 -2.1745894e-18 
-9.4957026e-19 2.3911961e-18 8.0348447e-19 
1.7812226e-19 5.2865682e-19 9.0427467e-19 
-6.8119988e-19 1.5872721e-18 3.7089458e-19 
-2.9254067e-19 3.8584700e-18 7.5716324e-19 
-2.1800759e-18 1.1709033e-18 -2.0811662e-18 
0.0000000e+00 0.0000000e+00 0.0000000e+00 
0.0000000e+00 0.0000000e+00 0.0000000e+00 
0.0000000e+00 0.0000000e+00 0.0000000e+00 
-8.4866105e-19 -4.5584921e-19 -2.5824401e-18 
-1.1789229e-18 1.3696985e-18 6.9437873e-19 
-5.3894012e-19 2.7545501e-18 1.0503097e-18 
8.7175615e-20 -4.0712284e-19 2.1681995e-19 
-1.2017212e-18 -6.0919748e-19 -9.8818294e-19 
6.6369291e-19 7.0298663e-19 -6.6307847e-19 
-1.2463254e-18 -4.5024196e-19 -1.4896940e-18 
-1.4041369e-18 1.3402660e-19 -1.4914362e-18 
-1.0792612e-18 -3.9140271e-19 -3.7432495e-20 
-5.1362302e-19 -3.5740179e-19 -1.6551533e-18 
5.7866733e-19 2.8658021e-19 -2.0446947e-19 
0.0000000e+00 0.0000000e+00 0.0000000e+00 
7.3058024e-19 1.8650582e-18 1.1989032e-19 
0.0000000e+00 0.0000000e+00 0.0000000e+00 
4.0824013e-19 2.0184150e-18 6.4776286e-19 
-4.3230633e-19 2.2443348e-18 4.0073814e-19 
-3.0581268e-20 8.8346074e-19 -2.4886197e-19 
0.0000000e+00 0.0000000e+00 0.0000000e+00 
5.5041425e-19 1.2334605e-18 2.6844384e-19 
0.0000000e+00 0.0000000e+00 0.0000000e+00 
-9.4989255e-19 1.3244623e-18 -1.5305452e-19 
-2.9254618e-19 2.2704032e-18 1.0094509e-18 
3.3882846e-19 1.1265336e-18 9.5380780e-19 
-7.6802458e-19 3.7079785e-19 -2.9062689e-18 
-7.0634457e-19 2.1284648e-19 -2.7277590e-18 
0.0000000e+00 0.0000000e+00 0.0000000e+00 
-1.7409772e-19 1.5029019e-19 -2.0608334e-19 
-1.8408861e-18 -1.3613575e-18 -5.7552260e-19 
2.1022463e-19 9.9985322e-19 -2.3149371e-18 
-7.5064146e-20 9.4031524e-19 -6.1245590e-19 
1.1611718e-18 3.4054013e-18 1.6158378e-18 
1.3493722e-18 -9.4073276e-19 1.1586320e-18 
0.0000000e+00 0.0000000e+00 0.0000000e+00 
0.0000000e+00 0.0000000e+00 0.0000000e+00 
0.0000000e+00 0.0000000e+00 0.0000000e+00 
-1.0273815e-18 -4.5427958e-19 2.4599033e-19 
0.0000000e+00 0.0000000e+00 0.0000000e+00 
7.0630786e-19 1.4084152e-18 1.5252662e-19 
1.1904349e-19 5.0095568e-19 8.1885622e-21 
0.0000000e+00 0.0000000e+00 0.0000000e+00 
-1.9642545e-18 -1.5998154e-19 -1.5446728e-18 
-3.8391155e-20 -1.7091769e-19 3.4657262e-20 
-5.8944456e-19 9.4630124e-19 -1.1769016e-18 
3.6264720e-19 2.3519156e-18 -5.8761132e-19 
5.2981575e-19 -1.7534559e-19 -8.5073954e-19 
0.0000000e+00 0.0000000e+00 0.0000000e+00 
2.3295112e-18 4.6540871e-20 3.3475087e-19 
-1.6635057e-19 2.5133961e-18 -9.0174920e-20 
8.5736371e-19 1.3359614e-18 -3.5548640e-19 
-1.2901001e-18 -9.0351346e-19 -1.3015285e-18 
-3.9255011e-19 -3.9094076e-19 -6.4587064e-19 
0.0000000e+00 0.0000000e+00 0.0000000e+00 
0.0000000e+00 0.0000000e+00 0.0000000e+00 
0.0000000e+00 0.0000000e+00 0.0000000e+00 
0.0000000e+00 0.0000000e+00 0.0000000e+00 
-3.4374871e-19 1.8270813e-18 -4.1358167e-19 
-6.0249690e-19 -7.1037308e-20 -1.8569721e-18 
0.0000000e+00 0.0000000e+00 0.0000000e+00 
0.0000000e+00 0.0000000e+00 0.0000000e+00 
-8.5678473e-19 1.3721294e-19 8.8506506e-19 
9.0023038e-19 -4.6014905e-19 -1.4673435e-18 
0.0000000e+00 0.0000000e+00 0.0000000e+00 
1.6846901e-18 3.5905752e-19 9.2664370e-19 
0.0000000e+00 0.0000000e+00 0.0000000e+00 
0.0000000e+00 0.0000000e+00 0.0000000e+00 
6.3795074e-19 -4.9062535e-20 -2.1196168e-18 
-2.3638216e-19 -5.6023666e-19 -7.9982079e-19 
0.0000000e+00 0.0000000e+00 0.0000000e+00 
-6.3035397e-19 -1.1690034e-19 -1.5730261e-19 
-3.6706592e-19 1.0317976e-19 -1.0557971e-18 
0.0000000e+00 0.0000000e+00 0.0000000e+00 
0.0000000e+00 0.0000000e+00 0.0000000e+00 
0.0000000e+00 0.0000000e+00 0.0000000e+00 
3.3637085e-19 3.4054695e-19 -1.3297901e-18 
0.0000000e+00 0.0000000e+00 0.0000000e+00 
0.0000000e+00 0.0000000e+00 0.0000000e+00 
NORMAL 3 2292  float
-9.9912918e-01 -4.1724380e-02 0.0000000e+00 
0.0000000e+00 1.0000000e+00 0.0000000e+00 
-9.9740410e-01 -7.1983211e-02 -1.8521887e-03 
-9.9863821e-01 -5.2029334e-02 -3.8277942e-03 
0.0000000e+00 0.0000000e+00 0.0000000e+00 
0.0000000e+00 1.0000000e+00 0.0000000e+00 
0.0000000e+00 1.0000000e+00 0.0000000e+00 
-9.8757714e-01 -1.5711316e-01 2.6077933e-03 
-9.9355114e-01 -1.1329973e-01 -4.3958658e-03 
0.0000000e+00 0.0000000e+00 0.0000000e+00 
-9.9805480e-01 -6.2319495e-02 -1.6965428e-03 
-9.8079926e-01 -1.9498843e-01 -3.5052076e-03 
0.0000000e+00 0.0000000e+00 0.0000000e+00 
0.0000000e+00 1.0000000e+00 0.0000000e+00 
0.0000000e+00 1.0000000e+00 0.0000000e+00 
-9.7265363e-01 -2.3222265e-01 4.1974727e-03 
0.0000000e+00 1.0000000e+00 0.0000000e+00 
0.0000000e+00 0.0000000e+00 0.0000000e+00 
0.0000000e+00 0.0000000e+00 0.0000000e+00 
0.0000000e+00 0.0000000e+00 0.0000000e+00 
-9.6350527e-01 -2.6766783e-01 -3.3929457e-03 
0.0000000e+00 0.0000000e+00 0.0000000e+00 
0.0000000e+00 1.0000000e+00 0.0000000e+00 
-9.9236405e-01 -1.2334298e-01 -2.8570867e-04 
0.0000000e+00 0.0000000e+00 0.0000000e+00 
-9.5171118e-01 -3.0698204e-01 2.7959950e-03 
-9.7095287e-01 -2.3921414e-01 -5.2113482e-03 
0.0000000e+00 0.0000000e+00 0.0000000e+00 
0.0000000e+00 0.0000000e+00 0.0000000e+00 
0.0000000e+00 0.0000000e+00 0.0000000e+00 
0.0000000e+00 1.0000000e+00 0.0000000e+00 
0.0000000e+00 0.0000000e+00 0.0000000e+00 
0.0000000e+00 0.0000000e+00 0.0000000e+00 
0.0000000e+00 0.0000000e+00 0.0000000e+00 
-9.9799544e-01 -6.3273229e-02 1.2523981e-03 
0.0000000e+00 0.0000000e+00 0.0000000e+00 
-9.4153887e-01 -3.3685082e-01 -6.0022185e-03 
0.0000000e+00 0.0000000e+00 0.0000000e+00 
0.0000000e+00 1.0000000e+00 0.0000000e+00 
0.0000000e+00 0.0000000e+00 0.0000000e+00 
0.0000000e+00 0.0000000e+00 0.0000000e+00 
-9.2425907e-01 -3.8174570e-01 3.9213467e-03 
0.0000000e+00 0.0000000e+00 0.0000000e+00 
0.0000000e+00 0.0000000e+00 0.0000000e+00 
0.0000000e+00 0.0000000e+00 0.0000000e+00 
0.0000000e+00 0.0000000e+00 0.0000000e+00 
0.0000000e+00 0.0000000e+00 0.0000000e+00 
0.0000000e+00 0.0000000e+00 0.0000000e+00 
0.0000000e+00 0.0000000e+00 0.0000000e+00 
0.0000000e+00 0.0000000e+00 0.0000000e+00 
0.0000000e+00 0.0000000e+00 0.0000000e+00 
-9.0954328e-01 -4.1559431e-01 -3.5207891e-03 
0.0000000e+00 0.0000000e+00 0.0000000e+00 
-9.2011726e-01 -3.9155990e-01 -8.0641564e-03 
0.0000000e+00 0.0000000e+00 0.0000000e+00 
-9.6322793e-01 -2.6868376e-01 9.8992093e-04 
-9.9197447e-01 -1.2643790e-01 -3.9181887e-04 
0.0000000e+00 1.0000000e+00 0.0000000e+00 
0.0000000e+00 0.0000000e+00 0.0000000e+00 
0.0000000e+00 0.0000000e+00 0.0000000e+00 
-8.9168787e-01 -4.5264399e-01 2.4873496e-03 
0.0000000e+00 1.0000000e+00 0.0000000e+00 
0.0000000e+00 0.0000000e+00 0.0000000e+00 
0.0000000e+00 0.0000000e+00 0.0000000e+00 
0.0000000e+00 0.0000000e+00 0.0000000e+00 
0.0000000e+00 0.0000000e+00 0.0000000e+00 
0.0000000e+00 0.0000000e+00 0.0000000e+00 
-9.9748981e-01 -7.0643321e-02 -4.8582847e-03 
-8.7490320e-01 -4.8418888e-01 -1.0271907e-02 
0.0000000e+00 0.0000000e+00 0.0000000e+00 
0.0000000e+00 0.0000000e+00 0.0000000e+00 
0.0000000e+00 0.0000000e+00 0.0000000e+00 
0.0000000e+00 0.0000000e+00 0.0000000e+00 
0.0000000e+00 0.0000000e+00 0.0000000e+00 
0.0000000e+00 0.0000000e+00 0.0000000e+00 
0.0000000e+00 0.0000000e+00 0.0000000e+00 
0.0000000e+00 0.0000000e+00 0.0000000e+00 
-8.5255021e-01 -5.2263618e-01 3.1013640e-03 
0.0000000e+00 0.0000000e+00 0.0000000e+00 
0.0000000e+00 0.0000000e+00 0.0000000e+00 
0.0000000e+00 0.0000000e+00 0.0000000e+00 
0.0000000e+00 0.0000000e+00 0.0000000e+00 
-9.6925139e-01 -2.4607110e-01 8.8879530e-04 
0.0000000e+00 0.0000000e+00 0.0000000e+00 
-8.9905149e-01 -4.3781942e-01 4.5368541e-03 
-8.3136451e-01 -5.5572534e-01 -1.5426141e-03 
0.0000000e+00 0.0000000e+00 0.0000000e+00 
0.0000000e+00 0.0000000e+00 0.0000000e+00 
0.0000000e+00 0.0000000e+00 0.0000000e+00 
0.0000000e+00 1.0000000e+00 0.0000000e+00 
0.0000000e+00 0.0000000e+00 0.0000000e+00 
0.0000000e+00 0.0000000e+00 0.0000000e+00 
0.0000000e+00 0.0000000e+00 0.0000000e+00 
-8.0895787e-01 -5.8785945e-01 2.9122785e-03 
0.0000000e+00 0.0000000e+00 0.0000000e+00 
0.0000000e+00 0.0000000e+00 0.0000000e+00 
-8.3228254e-01 -5.5434358e-01 -2.9945453e-03 
0.0000000e+00 0.0000000e+00 0.0000000e+00 
0.0000000e+00 0.0000000e+00 0.0000000e+00 
0.0000000e+00 0.0000000e+00 0.0000000e+00 
0.0000000e+00 0.0000000e+00 0.0000000e+00 
0.0000000e+00 0.0000000e+00 0.0000000e+00 
0.0000000e+00 0.0000000e+00 0.0000000e+00 
-9.9723881e-01 -7.3918268e-02 7.1331318e-03 
-9.2685181e-01 -3.7541574e-01 2.9658629e-03 
0.0000000e+00 0.0000000e+00 0.0000000e+00 
-9.8912638e-01 -1.4706147e-01 1.4052035e-03 
-7.8384614e-01 -6.2090832e-01 -7.6201903e-03 
0.0000000e+00 0.0000000e+00 0.0000000e+00 
0.0000000e+00 0.0000000e+00 0.0000000e+00 
0.0000000e+00 0.0000000e+00 0.0000000e+00 
0.0000000e+00 1.0000000e+00 0.0000000e+00 
0.0000000e+00 0.0000000e+00 0.0000000e+00 
0.0000000e+00 0.0000000e+00 0.0000000e+00 
0.0000000e+00 0.0000000e+00 0.0000000e+00 
0.0000000e+00 0.0000000e+00 0.0000000e+00 
0.0000000e+00 0.0000000e+00 0.0000000e+00 
-8.2529718e-01 -5.6469476e-01 -2.0980365e-03 
0.0000000e+00 0.0000000e+00 0.0000000e+00 
-7.6034826e-01 -6.4950866e-01 3.0045325e-03 
0.0000000e+00 0.0000000e+00 0.0000000e+00 
0.0000000e+00 0.0000000e+00 0.0000000e+00 
0.0000000e+00 0.0000000e+00 0.0000000e+00 
0.0000000e+00 0.0000000e+00 0.0000000e+00 
0.0000000e+00 1.0000000e+00 0.0000000e+00 
-9.5556146e-01 -2.9476392e-01 4.0607192e-03 
0.0000000e+00 0.0000000e+00 0.0000000e+00 
0.0000000e+00 0.0000000e+00 0.0000000e+00 
0.0000000e+00 0.0000000e+00 0.0000000e+00 
0.0000000e+00 0.0000000e+00 0.0000000e+00 
0.0000000e+00 0.0000000e+00 0.0000000e+00 
-8.5506499e-01 -5.1852083e-01 2.3146460e-04 
-7.3433119e-01 -6.7878777e-01 -2.2113470e-03 
0.0000000e+00 0.0000000e+00 0.0000000e+00 
0.0000000e+00 0.0000000e+00 0.0000000e+00 
0.0000000e+00 0.0000000e+00 0.0000000e+00 
0.0000000e+00 0.0000000e+00 0.0000000e+00 
-9.9855119e-01 -5.3505730e-02 5.7157576e-03 
0.0000000e+00 0.0000000e+00 0.0000000e+00 
0.0000000e+00 0.0000000e+00 0.0000000e+00 
0.0000000e+00 0.0000000e+00 0.0000000e+00 
-7.0707756e-01 -7.0712924e-01 3.0920233e-03 
-7.2353959e-01 -6.9025904e-01 -5.7375906e-03 
-9.9439389e-01 -1.0559089e-01 5.6014811e-03 
0.0000000e+00 0.0000000e+00 0.0000000e+00 
0.0000000e+00 1.0000000e+00 0.0000000e+00 
0.0000000e+00 1.0000000e+00 0.0000000e+00 
0.0000000e+00 0.0000000e+00 0.0000000e+00 
-9.7962391e-01 -2.0076327e-01 5.5762138e-03 
-7.4401206e-01 -6.6816562e-01 8.9839916e-04 
0.0000000e+00 0.0000000e+00 0.0000000e+00 
0.0000000e+00 0.0000000e+00 0.0000000e+00 
0.0000000e+00 0.0000000e+00 0.0000000e+00 
0.0000000e+00 0.0000000e+00 0.0000000e+00 
0.0000000e+00 0.0000000e+00 0.0000000e+00 
0.0000000e+00 0.0000000e+00 0.0000000e+00 
0.0000000e+00 0.0000000e+00 0.0000000e+00 
-6.7638093e-01 -7.3651403e-01 -7.4757468e-03 
-9.6237057e-01 -2.7172834e-01 2.5750955e-03 
-8.9135075e-01 -4.5325297e-01 7.4544381e-03 
0.0000000e+00 1.0000000e+00 0.0000000e+00 
0.0000000e+00 0.0000000e+00 0.0000000e+00 
0.0000000e+00 0.0000000e+00 0.0000000e+00 
0.0000000e+00 0.0000000e+00 0.0000000e+00 
-6.4944452e-01 -7.6040244e-01 3.1574385e-03 
0.0000000e+00 0.0000000e+00 0.0000000e+00 
-9.3548840e-01 -3.5324448e-01 8.9318892e-03 
0.0000000e+00 0.0000000e+00 0.0000000e+00 
0.0000000e+00 0.0000000e+00 0.0000000e+00 
-9.9917787e-01 -4.0540952e-02 0.0000000e+00 
0.0000000e+00 1.0000000e+00 0.0000000e+00 
-9.9732262e-01 -7.3083878e-02 2.5123209e-03 
0.0000000e+00 0.0000000e+00 0.0000000e+00 
0.0000000e+00 0.0000000e+00 0.0000000e+00 
0.0000000e+00 0.0000000e+00 0.0000000e+00 
0.0000000e+00 0.0000000e+00 0.0000000e+00 
0.0000000e+00 1.0000000e+00 0.0000000e+00 
-9.8759949e-01 -1.5695304e-01 -3.6013024e-03 
0.0000000e+00 0.0000000e+00 0.0000000e+00 
0.0000000e+00 0.0000000e+00 0.0000000e+00 
-7.6303828e-01 -6.4635158e-01 1.4888031e-03 
0.0000000e+00 0.0000000e+00 0.0000000e+00 
0.0000000e+00 0.0000000e+00 0.0000000e+00 
0.0000000e+00 0.0000000e+00 0.0000000e+00 
0.0000000e+00 0.0000000e+00 0.0000000e+00 
-6.1915308e-01 -7.8526539e-01 -2.7793825e-03 
0.0000000e+00 1.0000000e+00 0.0000000e+00 
-9.7229481e-01 -2.3373260e-01 -3.4481753e-03 
0.0000000e+00 0.0000000e+00 0.0000000e+00 
0.0000000e+00 0.0000000e+00 0.0000000e+00 
0.0000000e+00 0.0000000e+00 0.0000000e+00 
-8.0967152e-01 -5.8686048e-01 5.1764152e-03 
-9.0638381e-01 -4.2243657e-01 3.9688125e-03 
0.0000000e+00 0.0000000e+00 0.0000000e+00 
0.0000000e+00 0.0000000e+00 0.0000000e+00 
0.0000000e+00 0.0000000e+00 0.0000000e+00 
0.0000000e+00 0.0000000e+00 0.0000000e+00 
0.0000000e+00 0.0000000e+00 0.0000000e+00 
0.0000000e+00 0.0000000e+00 0.0000000e+00 
0.0000000e+00 0.0000000e+00 0.0000000e+00 
0.0000000e+00 0.0000000e+00 0.0000000e+00 
0.0000000e+00 1.0000000e+00 0.0000000e+00 
-9.5100796e-01 -3.0914897e-01 -3.2754010e-03 
0.0000000e+00 0.0000000e+00 0.0000000e+00 
0.0000000e+00 0.0000000e+00 0.0000000e+00 
0.0000000e+00 0.0000000e+00 0.0000000e+00 
0.0000000e+00 0.0000000e+00 0.0000000e+00 
-6.4567554e-01 -7.6360750e-01 -2.5899108e-03 
-5.8780307e-01 -8.0899763e-01 3.2319799e-03 
0.0000000e+00 0.0000000e+00 0.0000000e+00 
0.0000000e+00 0.0000000e+00 0.0000000e+00 
-6.0459846e-01 -7.9650670e-01 -6.1437231e-03 
-8.7154120e-01 -4.9029613e-01 5.0622495e-03 
0.0000000e+00 0.0000000e+00 0.0000000e+00 
0.0000000e+00 0.0000000e+00 0.0000000e+00 
0.0000000e+00 0.0000000e+00 0.0000000e+00 
0.0000000e+00 0.0000000e+00 0.0000000e+00 
0.0000000e+00 0.0000000e+00 0.0000000e+00 
0.0000000e+00 0.0000000e+00 0.0000000e+00 
-9.2312711e-01 -3.8448578e-01 -2.6447482e-03 
0.0000000e+00 0.0000000e+00 0.0000000e+00 
0.0000000e+00 0.0000000e+00 0.0000000e+00 
0.0000000e+00 0.0000000e+00 0.0000000e+00 
0.0000000e+00 0.0000000e+00 0.0000000e+00 
0.0000000e+00 0.0000000e+00 0.0000000e+00 
0.0000000e+00 0.0000000e+00 0.0000000e+00 
-5.5256057e-01 -8.3344263e-01 -7.0900540e-03 
0.0000000e+00 0.0000000e+00 0.0000000e+00 
-8.3534211e-01 -5.4966986e-01 8.1592156e-03 
0.0000000e+00 0.0000000e+00 0.0000000e+00 
0.0000000e+00 0.0000000e+00 0.0000000e+00 
-8.9036292e-01 -4.5523673e-01 -3.6641667e-03 
0.0000000e+00 0.0000000e+00 0.0000000e+00 
0.0000000e+00 0.0000000e+00 0.0000000e+00 
0.0000000e+00 0.0000000e+00 0.0000000e+00 
0.0000000e+00 0.0000000e+00 0.0000000e+00 
-5.2252370e-01 -8.5261834e-01 3.3077865e-03 
0.0000000e+00 0.0000000e+00 0.0000000e+00 
0.0000000e+00 0.0000000e+00 0.0000000e+00 
0.0000000e+00 0.0000000e+00 0.0000000e+00 
0.0000000e+00 0.0000000e+00 0.0000000e+00 
0.0000000e+00 0.0000000e+00 0.0000000e+00 
0.0000000e+00 0.0000000e+00 0.0000000e+00 
-6.4394498e-01 -7.6506883e-01 2.1229039e-03 
0.0000000e+00 0.0000000e+00 0.0000000e+00 
-7.1830338e-01 -6.9571877e-01 3.9566983e-03 
-7.8154558e-01 -6.2383229e-01 4.4440357e-03 
0.0000000e+00 0.0000000e+00 0.0000000e+00 
-8.5246044e-01 -5.2278209e-01 -3.1703934e-03 
0.0000000e+00 0.0000000e+00 0.0000000e+00 
0.0000000e+00 0.0000000e+00 0.0000000e+00 
0.0000000e+00 0.0000000e+00 0.0000000e+00 
0.0000000e+00 0.0000000e+00 0.0000000e+00 
0.0000000e+00 0.0000000e+00 0.0000000e+00 
-4.8869449e-01 -8.7245017e-01 -2.8922199e-03 
0.0000000e+00 0.0000000e+00 0.0000000e+00 
0.0000000e+00 0.0000000e+00 0.0000000e+00 
0.0000000e+00 0.0000000e+00 0.0000000e+00 
0.0000000e+00 0.0000000e+00 0.0000000e+00 
0.0000000e+00 0.0000000e+00 0.0000000e+00 
0.0000000e+00 0.0000000e+00 0.0000000e+00 
-5.1861054e-01 -8.5500640e-01 -2.6665302e-03 
0.0000000e+00 0.0000000e+00 0.0000000e+00 
0.0000000e+00 0.0000000e+00 0.0000000e+00 
0.0000000e+00 0.0000000e+00 0.0000000e+00 
0.0000000e+00 0.0000000e+00 0.0000000e+00 
0.0000000e+00 0.0000000e+00 0.0000000e+00 
-4.7210968e-01 -8.8151968e-01 -5.9558195e-03 
-4.5404017e-01 -8.9097482e-01 3.3716199e-03 
-8.0888951e-01 -5.8795291e-01 -3.0228158e-03 
0.0000000e+00 0.0000000e+00 0.0000000e+00 
0.0000000e+00 0.0000000e+00 0.0000000e+00 
0.0000000e+00 0.0000000e+00 0.0000000e+00 
-7.3427469e-01 -6.7884761e-01 2.5603990e-03 
0.0000000e+00 0.0000000e+00 0.0000000e+00 
0.0000000e+00 0.0000000e+00 0.0000000e+00 
0.0000000e+00 0.0000000e+00 0.0000000e+00 
0.0000000e+00 0.0000000e+00 0.0000000e+00 
0.0000000e+00 0.0000000e+00 0.0000000e+00 
0.0000000e+00 0.0000000e+00 0.0000000e+00 
0.0000000e+00 0.0000000e+00 0.0000000e+00 
-4.1544652e-01 -9.0958863e-01 -7.2584259e-03 
0.0000000e+00 0.0000000e+00 0.0000000e+00 
0.0000000e+00 0.0000000e+00 0.0000000e+00 
0.0000000e+00 0.0000000e+00 0.0000000e+00 
0.0000000e+00 0.0000000e+00 0.0000000e+00 
-7.6029938e-01 -6.4956528e-01 -3.1167723e-03 
0.0000000e+00 0.0000000e+00 0.0000000e+00 
0.0000000e+00 0.0000000e+00 0.0000000e+00 
0.0000000e+00 0.0000000e+00 0.0000000e+00 
0.0000000e+00 0.0000000e+00 0.0000000e+00 
-6.7599195e-01 -7.3687917e-01 6.6259792e-03 
0.0000000e+00 0.0000000e+00 0.0000000e+00 
-3.8274813e-01 -9.2384636e-01 3.4277232e-03 
-6.0387880e-01 -7.9705554e-01 5.7315682e-03 
0.0000000e+00 0.0000000e+00 0.0000000e+00 
-5.1986170e-01 -8.5424286e-01 3.5992851e-03 
0.0000000e+00 0.0000000e+00 0.0000000e+00 
0.0000000e+00 0.0000000e+00 0.0000000e+00 
0.0000000e+00 0.0000000e+00 0.0000000e+00 
0.0000000e+00 0.0000000e+00 0.0000000e+00 
0.0000000e+00 0.0000000e+00 0.0000000e+00 
0.0000000e+00 0.0000000e+00 0.0000000e+00 
0.0000000e+00 0.0000000e+00 0.0000000e+00 
0.0000000e+00 0.0000000e+00 0.0000000e+00 
-7.0704556e-01 -7.0716071e-01 -3.2087672e-03 
0.0000000e+00 0.0000000e+00 0.0000000e+00 
0.0000000e+00 0.0000000e+00 0.0000000e+00 
-3.4622696e-01 -9.3814611e-01 -2.9685635e-03 
0.0000000e+00 0.0000000e+00 0.0000000e+00 
0.0000000e+00 0.0000000e+00 0.0000000e+00 
0.0000000e+00 0.0000000e+00 0.0000000e+00 
0.0000000e+00 0.0000000e+00 0.0000000e+00 
0.0000000e+00 0.0000000e+00 0.0000000e+00 
0.0000000e+00 0.0000000e+00 0.0000000e+00 
0.0000000e+00 0.0000000e+00 0.0000000e+00 
-3.6865002e-01 -9.2956334e-01 -3.0215785e-03 
-6.1914998e-01 -7.8526831e-01 2.6557336e-03 
0.0000000e+00 0.0000000e+00 0.0000000e+00 
-3.2858205e-01 -9.4445610e-01 -6.0380390e-03 
-3.0910280e-01 -9.5102227e-01 3.4772654e-03 
0.0000000e+00 0.0000000e+00 0.0000000e+00 
0.0000000e+00 0.0000000e+00 0.0000000e+00 
-6.4943165e-01 -7.6041293e-01 -3.2763989e-03 
0.0000000e+00 0.0000000e+00 0.0000000e+00 
0.0000000e+00 0.0000000e+00 0.0000000e+00 
0.0000000e+00 0.0000000e+00 0.0000000e+00 
0.0000000e+00 0.0000000e+00 0.0000000e+00 
0.0000000e+00 0.0000000e+00 0.0000000e+00 
0.0000000e+00 0.0000000e+00 0.0000000e+00 
0.0000000e+00 0.0000000e+00 0.0000000e+00 
0.0000000e+00 0.0000000e+00 0.0000000e+00 
-2.6791349e-01 -9.6341175e-01 -7.7585867e-03 
0.0000000e+00 0.0000000e+00 0.0000000e+00 
-5.5257297e-01 -8.3343542e-01 6.9698226e-03 
0.0000000e+00 0.0000000e+00 0.0000000e+00 
0.0000000e+00 0.0000000e+00 0.0000000e+00 
0.0000000e+00 0.0000000e+00 0.0000000e+00 
0.0000000e+00 0.0000000e+00 0.0000000e+00 
-4.7213376e-01 -8.8150752e-01 5.8484995e-03 
0.0000000e+00 0.0000000e+00 0.0000000e+00 
0.0000000e+00 0.0000000e+00 0.0000000e+00 
-3.9250559e-01 -9.1974491e-01 2.9394471e-03 
-2.3353919e-01 -9.7234100e-01 3.5227016e-03 
0.0000000e+00 0.0000000e+00 0.0000000e+00 
0.0000000e+00 0.0000000e+00 0.0000000e+00 
0.0000000e+00 0.0000000e+00 0.0000000e+00 
-5.8780706e-01 -8.0899423e-01 -3.3514798e-03 
0.0000000e+00 0.0000000e+00 0.0000000e+00 
0.0000000e+00 0.0000000e+00 0.0000000e+00 
0.0000000e+00 0.0000000e+00 0.0000000e+00 
0.0000000e+00 0.0000000e+00 0.0000000e+00 
0.0000000e+00 0.0000000e+00 0.0000000e+00 
0.0000000e+00 0.0000000e+00 0.0000000e+00 
0.0000000e+00 0.0000000e+00 0.0000000e+00 
0.0000000e+00 0.0000000e+00 0.0000000e+00 
-4.8873031e-01 -8.7243050e-01 2.7849593e-03 
-1.9520403e-01 -9.8075742e-01 -3.2057127e-03 
0.0000000e+00 0.0000000e+00 0.0000000e+00 
0.0000000e+00 0.0000000e+00 0.0000000e+00 
0.0000000e+00 0.0000000e+00 0.0000000e+00 
0.0000000e+00 0.0000000e+00 0.0000000e+00 
0.0000000e+00 0.0000000e+00 0.0000000e+00 
-2.2190328e-01 -9.7506636e-01 -2.1349364e-03 
0.0000000e+00 0.0000000e+00 0.0000000e+00 
0.0000000e+00 0.0000000e+00 0.0000000e+00 
0.0000000e+00 0.0000000e+00 0.0000000e+00 
0.0000000e+00 0.0000000e+00 0.0000000e+00 
-5.2254725e-01 -8.5260350e-01 -3.4178088e-03 
0.0000000e+00 0.0000000e+00 0.0000000e+00 
-1.7417422e-01 -9.8469394e-01 -6.4135236e-03 
-1.5653664e-01 -9.8766577e-01 3.5575787e-03 
0.0000000e+00 0.0000000e+00 0.0000000e+00 
0.0000000e+00 0.0000000e+00 0.0000000e+00 
0.0000000e+00 0.0000000e+00 0.0000000e+00 
0.0000000e+00 0.0000000e+00 0.0000000e+00 
0.0000000e+00 0.0000000e+00 0.0000000e+00 
0.0000000e+00 0.0000000e+00 0.0000000e+00 
-4.1550338e-01 -9.0956342e-01 7.1663633e-03 
0.0000000e+00 0.0000000e+00 0.0000000e+00 
0.0000000e+00 0.0000000e+00 0.0000000e+00 
0.0000000e+00 0.0000000e+00 0.0000000e+00 
0.0000000e+00 0.0000000e+00 0.0000000e+00 
0.0000000e+00 0.0000000e+00 0.0000000e+00 
-1.1021954e-01 -9.9385273e-01 -1.0411974e-02 
0.0000000e+00 0.0000000e+00 0.0000000e+00 
0.0000000e+00 0.0000000e+00 0.0000000e+00 
-3.2864100e-01 -9.4443595e-01 5.9810099e-03 
-4.5409161e-01 -8.9094824e-01 -3.4685661e-03 
0.0000000e+00 0.0000000e+00 0.0000000e+00 
-2.4879274e-01 -9.6855426e-01 2.2041346e-03 
0.0000000e+00 0.0000000e+00 0.0000000e+00 
-7.6847456e-02 -9.9703854e-01 2.9369176e-03 
0.0000000e+00 0.0000000e+00 0.0000000e+00 
0.0000000e+00 0.0000000e+00 0.0000000e+00 
0.0000000e+00 0.0000000e+00 0.0000000e+00 
0.0000000e+00 0.0000000e+00 0.0000000e+00 
0.0000000e+00 0.0000000e+00 0.0000000e+00 
0.0000000e+00 0.0000000e+00 0.0000000e+00 
0.0000000e+00 0.0000000e+00 0.0000000e+00 
0.0000000e+00 0.0000000e+00 0.0000000e+00 
0.0000000e+00 0.0000000e+00 0.0000000e+00 
-3.4630662e-01 -9.3811691e-01 2.8984656e-03 
0.0000000e+00 0.0000000e+00 0.0000000e+00 
0.0000000e+00 0.0000000e+00 0.0000000e+00 
0.0000000e+00 0.0000000e+00 0.0000000e+00 
0.0000000e+00 0.0000000e+00 0.0000000e+00 
0.0000000e+00 0.0000000e+00 0.0000000e+00 
0.0000000e+00 0.0000000e+00 0.0000000e+00 
0.0000000e+00 0.0000000e+00 0.0000000e+00 
-7.3328942e-02 -9.9730182e-01 3.4629281e-03 
-3.5655197e-02 -9.9935263e-01 -4.7956239e-03 
-3.8281968e-01 -9.2381644e-01 -3.5108335e-03 
0.0000000e+00 0.0000000e+00 0.0000000e+00 
0.0000000e+00 0.0000000e+00 0.0000000e+00 
8.5035531e-04 -9.9998993e-01 4.4097030e-03 
0.0000000e+00 0.0000000e+00 0.0000000e+00 
0.0000000e+00 0.0000000e+00 0.0000000e+00 
1.4694307e-03 -9.9994904e-01 -9.9889981e-03 
0.0000000e+00 0.0000000e+00 0.0000000e+00 
0.0000000e+00 0.0000000e+00 0.0000000e+00 
0.0000000e+00 0.0000000e+00 0.0000000e+00 
0.0000000e+00 0.0000000e+00 0.0000000e+00 
0.0000000e+00 0.0000000e+00 0.0000000e+00 
0.0000000e+00 0.0000000e+00 0.0000000e+00 
-2.6800576e-01 -9.6338642e-01 7.7161640e-03 
0.0000000e+00 0.0000000e+00 0.0000000e+00 
0.0000000e+00 0.0000000e+00 0.0000000e+00 
-8.9816295e-02 -9.9595654e-01 -1.8999794e-03 
0.0000000e+00 0.0000000e+00 0.0000000e+00 
0.0000000e+00 0.0000000e+00 0.0000000e+00 
0.0000000e+00 0.0000000e+00 0.0000000e+00 
4.0654898e-02 -9.9915719e-01 -5.6599556e-03 
0.0000000e+00 0.0000000e+00 0.0000000e+00 
0.0000000e+00 0.0000000e+00 0.0000000e+00 
-3.0919909e-01 -9.5099074e-01 -3.5371534e-03 
0.0000000e+00 0.0000000e+00 0.0000000e+00 
0.0000000e+00 0.0000000e+00 0.0000000e+00 
-1.7579949e-01 -9.8440439e-01 6.5187328e-03 
0.0000000e+00 0.0000000e+00 0.0000000e+00 
0.0000000e+00 0.0000000e+00 0.0000000e+00 
0.0000000e+00 0.0000000e+00 0.0000000e+00 
0.0000000e+00 0.0000000e+00 0.0000000e+00 
0.0000000e+00 0.0000000e+00 0.0000000e+00 
0.0000000e+00 0.0000000e+00 0.0000000e+00 
7.8352734e-02 -9.9691921e-01 3.6038444e-03 
0.0000000e+00 0.0000000e+00 0.0000000e+00 
3.9335355e-02 -9.9915314e-01 -1.2073525e-02 
0.0000000e+00 0.0000000e+00 0.0000000e+00 
0.0000000e+00 0.0000000e+00 0.0000000e+00 
0.0000000e+00 0.0000000e+00 0.0000000e+00 
0.0000000e+00 0.0000000e+00 0.0000000e+00 
0.0000000e+00 0.0000000e+00 0.0000000e+00 
0.0000000e+00 0.0000000e+00 0.0000000e+00 
-1.9530930e-01 -9.8073649e-01 3.1915021e-03 
0.0000000e+00 0.0000000e+00 0.0000000e+00 
0.0000000e+00 0.0000000e+00 0.0000000e+00 
0.0000000e+00 0.0000000e+00 0.0000000e+00 
0.0000000e+00 0.0000000e+00 0.0000000e+00 
1.1200403e-01 -9.9364793e-01 -1.0904564e-02 
0.0000000e+00 0.0000000e+00 0.0000000e+00 
-2.3364493e-01 -9.7231549e-01 -3.5565698e-03 
7.9112142e-02 -9.9674624e-01 -1.5434545e-02 
0.0000000e+00 0.0000000e+00 0.0000000e+00 
0.0000000e+00 0.0000000e+00 0.0000000e+00 
0.0000000e+00 0.0000000e+00 0.0000000e+00 
0.0000000e+00 0.0000000e+00 0.0000000e+00 
0.0000000e+00 0.0000000e+00 0.0000000e+00 
0.0000000e+00 0.0000000e+00 0.0000000e+00 
1.5633777e-01 -9.8769706e-01 3.5997517e-03 
0.0000000e+00 0.0000000e+00 0.0000000e+00 
0.0000000e+00 0.0000000e+00 0.0000000e+00 
0.0000000e+00 0.0000000e+00 0.0000000e+00 
0.0000000e+00 0.0000000e+00 0.0000000e+00 
-1.1033840e-01 -9.9383932e-01 1.0433280e-02 
0.0000000e+00 0.0000000e+00 0.0000000e+00 
1.7431071e-01 -9.8467016e-01 -6.3614803e-03 
1.9501086e-01 -9.8079610e-01 -3.1255281e-03 
0.0000000e+00 0.0000000e+00 0.0000000e+00 
-1.5666084e-01 -9.8764604e-01 -3.5607077e-03 
0.0000000e+00 0.0000000e+00 0.0000000e+00 
0.0000000e+00 0.0000000e+00 0.0000000e+00 
0.0000000e+00 0.0000000e+00 0.0000000e+00 
0.0000000e+00 0.0000000e+00 0.0000000e+00 
0.0000000e+00 0.0000000e+00 0.0000000e+00 
0.0000000e+00 0.0000000e+00 0.0000000e+00 
0.0000000e+00 0.0000000e+00 0.0000000e+00 
8.0322355e-02 -9.9676269e-01 3.5336111e-03 
0.0000000e+00 0.0000000e+00 0.0000000e+00 
0.0000000e+00 0.0000000e+00 0.0000000e+00 
0.0000000e+00 0.0000000e+00 0.0000000e+00 
2.3335630e-01 -9.7238469e-01 3.5844804e-03 
0.0000000e+00 0.0000000e+00 0.0000000e+00 
1.1814275e-03 -9.9994057e-01 1.0838842e-02 
0.0000000e+00 0.0000000e+00 0.0000000e+00 
0.0000000e+00 0.0000000e+00 0.0000000e+00 
0.0000000e+00 0.0000000e+00 0.0000000e+00 
0.0000000e+00 0.0000000e+00 0.0000000e+00 
0.0000000e+00 0.0000000e+00 0.0000000e+00 
0.0000000e+00 0.0000000e+00 0.0000000e+00 
0.0000000e+00 0.0000000e+00 0.0000000e+00 
2.6775751e-01 -9.6345603e-01 -7.6436149e-03 
-3.5789721e-02 -9.9934751e-01 4.8581460e-03 
0.0000000e+00 0.0000000e+00 0.0000000e+00 
0.0000000e+00 0.0000000e+00 0.0000000e+00 
2.1626888e-01 -9.7628731e-01 -9.5322914e-03 
-7.6987475e-02 -9.9702787e-01 -2.8966819e-03 
0.0000000e+00 0.0000000e+00 0.0000000e+00 
0.0000000e+00 0.0000000e+00 0.0000000e+00 
0.0000000e+00 0.0000000e+00 0.0000000e+00 
0.0000000e+00 0.0000000e+00 0.0000000e+00 
0.0000000e+00 0.0000000e+00 0.0000000e+00 
0.0000000e+00 0.0000000e+00 0.0000000e+00 
0.0000000e+00 0.0000000e+00 0.0000000e+00 
0.0000000e+00 0.0000000e+00 0.0000000e+00 
3.0893943e-01 -9.5107508e-01 3.5619198e-03 
0.0000000e+00 0.0000000e+00 0.0000000e+00 
0.0000000e+00 0.0000000e+00 0.0000000e+00 
0.0000000e+00 0.0000000e+00 0.0000000e+00 
0.0000000e+00 0.0000000e+00 0.0000000e+00 
0.0000000e+00 0.0000000e+00 0.0000000e+00 
0.0000000e+00 0.0000000e+00 0.0000000e+00 
0.0000000e+00 0.0000000e+00 0.0000000e+00 
0.0000000e+00 0.0000000e+00 0.0000000e+00 
0.0000000e+00 0.0000000e+00 0.0000000e+00 
0.0000000e+00 0.0000000e+00 0.0000000e+00 
4.0510684e-02 -9.9916255e-01 5.7465667e-03 
0.0000000e+00 0.0000000e+00 0.0000000e+00 
0.0000000e+00 0.0000000e+00 0.0000000e+00 
3.2846302e-01 -9.4449818e-01 -5.9358189e-03 
0.0000000e+00 0.0000000e+00 0.0000000e+00 
0.0000000e+00 0.0000000e+00 0.0000000e+00 
0.0000000e+00 0.0000000e+00 0.0000000e+00 
3.4608057e-01 -9.3820041e-01 -2.8707110e-03 
0.0000000e+00 0.0000000e+00 0.0000000e+00 
7.0149329e-04 -9.9999040e-01 -4.3310132e-03 
0.0000000e+00 0.0000000e+00 0.0000000e+00 
0.0000000e+00 0.0000000e+00 0.0000000e+00 
0.0000000e+00 0.0000000e+00 0.0000000e+00 
0.0000000e+00 0.0000000e+00 0.0000000e+00 
2.3374799e-01 -9.7229016e-01 3.7073779e-03 
0.0000000e+00 0.0000000e+00 0.0000000e+00 
3.8262621e-01 -9.2389649e-01 3.5281826e-03 
0.0000000e+00 0.0000000e+00 0.0000000e+00 
0.0000000e+00 0.0000000e+00 0.0000000e+00 
0.0000000e+00 0.0000000e+00 0.0000000e+00 
0.0000000e+00 0.0000000e+00 0.0000000e+00 
0.0000000e+00 0.0000000e+00 0.0000000e+00 
0.0000000e+00 0.0000000e+00 0.0000000e+00 
0.0000000e+00 0.0000000e+00 0.0000000e+00 
0.0000000e+00 0.0000000e+00 0.0000000e+00 
1.7420161e-01 -9.8468846e-01 6.5124114e-03 
0.0000000e+00 0.0000000e+00 0.0000000e+00 
0.0000000e+00 0.0000000e+00 0.0000000e+00 
0.0000000e+00 0.0000000e+00 0.0000000e+00 
0.0000000e+00 0.0000000e+00 0.0000000e+00 
1.1186094e-01 -9.9366266e-01 1.1027850e-02 
4.1534165e-01 -9.0963745e-01 -7.1419086e-03 
3.9232257e-01 -9.1982323e-01 -2.8676768e-03 
0.0000000e+00 0.0000000e+00 0.0000000e+00 
0.0000000e+00 0.0000000e+00 0.0000000e+00 
0.0000000e+00 0.0000000e+00 0.0000000e+00 
0.0000000e+00 0.0000000e+00 0.0000000e+00 
0.0000000e+00 1.0000000e+00 0.0000000e+00 
0.0000000e+00 0.0000000e+00 0.0000000e+00 
0.0000000e+00 0.0000000e+00 0.0000000e+00 
0.0000000e+00 0.0000000e+00 0.0000000e+00 
0.0000000e+00 1.0000000e+00 0.0000000e+00 
7.8197517e-02 -9.9693179e-01 -3.4927335e-03 
0.0000000e+00 0.0000000e+00 0.0000000e+00 
0.0000000e+00 0.0000000e+00 0.0000000e+00 
0.0000000e+00 0.0000000e+00 0.0000000e+00 
0.0000000e+00 0.0000000e+00 0.0000000e+00 
0.0000000e+00 0.0000000e+00 0.0000000e+00 
4.5395103e-01 -8.9101982e-01 3.4835972e-03 
0.0000000e+00 1.0000000e+00 0.0000000e+00 
0.0000000e+00 0.0000000e+00 0.0000000e+00 
0.0000000e+00 0.0000000e+00 0.0000000e+00 
0.0000000e+00 0.0000000e+00 0.0000000e+00 
0.0000000e+00 0.0000000e+00 0.0000000e+00 
0.0000000e+00 0.0000000e+00 0.0000000e+00 
0.0000000e+00 0.0000000e+00 0.0000000e+00 
0.0000000e+00 0.0000000e+00 0.0000000e+00 
0.0000000e+00 0.0000000e+00 0.0000000e+00 
4.7202086e-01 -8.8156825e-01 -5.8076209e-03 
0.0000000e+00 0.0000000e+00 0.0000000e+00 
4.8862198e-01 -8.7249118e-01 -2.7675603e-03 
0.0000000e+00 0.0000000e+00 0.0000000e+00 
1.9486243e-01 -9.8082507e-01 3.2853787e-03 
0.0000000e+00 1.0000000e+00 0.0000000e+00 
0.0000000e+00 0.0000000e+00 0.0000000e+00 
0.0000000e+00 0.0000000e+00 0.0000000e+00 
1.5617985e-01 -9.8772258e-01 -3.4526091e-03 
0.0000000e+00 0.0000000e+00 0.0000000e+00 
0.0000000e+00 0.0000000e+00 0.0000000e+00 
0.0000000e+00 0.0000000e+00 0.0000000e+00 
3.6843011e-01 -9.2965019e-01 3.1262159e-03 
0.0000000e+00 0.0000000e+00 0.0000000e+00 
0.0000000e+00 0.0000000e+00 0.0000000e+00 
0.0000000e+00 0.0000000e+00 0.0000000e+00 
5.2246720e-01 -8.5265255e-01 3.4226517e-03 
0.0000000e+00 0.0000000e+00 0.0000000e+00 
0.0000000e+00 0.0000000e+00 0.0000000e+00 
0.0000000e+00 0.0000000e+00 0.0000000e+00 
0.0000000e+00 0.0000000e+00 0.0000000e+00 
0.0000000e+00 0.0000000e+00 0.0000000e+00 
0.0000000e+00 0.0000000e+00 0.0000000e+00 
0.0000000e+00 0.0000000e+00 0.0000000e+00 
0.0000000e+00 0.0000000e+00 0.0000000e+00 
0.0000000e+00 0.0000000e+00 0.0000000e+00 
0.0000000e+00 0.0000000e+00 0.0000000e+00 
0.0000000e+00 0.0000000e+00 0.0000000e+00 
0.0000000e+00 0.0000000e+00 0.0000000e+00 
3.2836419e-01 -9.4453108e-01 6.1619286e-03 
0.0000000e+00 0.0000000e+00 0.0000000e+00 
5.5251944e-01 -8.3347094e-01 -6.9561913e-03 
0.0000000e+00 1.0000000e+00 0.0000000e+00 
0.0000000e+00 0.0000000e+00 0.0000000e+00 
0.0000000e+00 1.0000000e+00 0.0000000e+00 
5.1978064e-01 -8.5429245e-01 -3.5241556e-03 
0.0000000e+00 0.0000000e+00 0.0000000e+00 
2.6762149e-01 -9.6349221e-01 7.8412481e-03 
0.0000000e+00 0.0000000e+00 0.0000000e+00 
0.0000000e+00 0.0000000e+00 0.0000000e+00 
0.0000000e+00 0.0000000e+00 0.0000000e+00 
0.0000000e+00 0.0000000e+00 0.0000000e+00 
5.8778036e-01 -8.0901361e-01 3.3538607e-03 
0.0000000e+00 0.0000000e+00 0.0000000e+00 
2.3319885e-01 -9.7242314e-01 -3.4039645e-03 
0.0000000e+00 0.0000000e+00 0.0000000e+00 
0.0000000e+00 0.0000000e+00 0.0000000e+00 
-8.3036166e-01 5.5720538e-01 -4.6545216e-03 
0.0000000e+00 0.0000000e+00 0.0000000e+00 
-8.0160534e-01 5.9780222e-01 -7.8316191e-03 
0.0000000e+00 0.0000000e+00 0.0000000e+00 
-8.3884352e-01 5.4436874e-01 -2.0611368e-03 
0.0000000e+00 0.0000000e+00 0.0000000e+00 
-8.2286614e-01 5.6822717e-01 3.0341109e-03 
-7.8630334e-01 6.1783606e-01 2.3757643e-03 
-8.5526067e-01 5.1819235e-01 2.4196019e-03 
-7.8758276e-01 6.1620808e-01 9.8708516e-04 
-7.6716310e-01 6.4144313e-01 -3.3857517e-03 
-8.6895329e-01 4.9486038e-01 -5.7755015e-03 
0.0000000e+00 0.0000000e+00 0.0000000e+00 
-8.5647875e-01 5.1618212e-01 3.8378205e-04 
6.0387063e-01 -7.9706204e-01 -5.6928270e-03 
0.0000000e+00 0.0000000e+00 0.0000000e+00 
6.1914915e-01 -7.8526896e-01 -2.6406227e-03 
-7.4823868e-01 6.6339552e-01 -6.7266049e-03 
0.0000000e+00 0.0000000e+00 0.0000000e+00 
0.0000000e+00 0.0000000e+00 0.0000000e+00 
0.0000000e+00 1.0000000e+00 0.0000000e+00 
-7.4876761e-01 6.6282147e-01 3.8424055e-03 
0.0000000e+00 0.0000000e+00 0.0000000e+00 
-8.9287627e-01 4.5027998e-01 -4.4574277e-03 
0.0000000e+00 0.0000000e+00 0.0000000e+00 
0.0000000e+00 0.0000000e+00 0.0000000e+00 
-7.2947180e-01 6.8400216e-01 -3.4436001e-03 
-8.8539743e-01 4.6482536e-01 2.9658559e-03 
0.0000000e+00 1.0000000e+00 0.0000000e+00 
-8.2365197e-01 5.6709564e-01 4.7873193e-05 
0.0000000e+00 0.0000000e+00 0.0000000e+00 
0.0000000e+00 0.0000000e+00 0.0000000e+00 
3.4594569e-01 -9.3824941e-01 3.1081978e-03 
0.0000000e+00 0.0000000e+00 0.0000000e+00 
0.0000000e+00 0.0000000e+00 0.0000000e+00 
-8.9843655e-01 4.3909922e-01 -1.9173211e-03 
6.4945906e-01 -7.6038945e-01 3.2835561e-03 
5.1850015e-01 -8.5507298e-01 2.7938227e-03 
0.0000000e+00 0.0000000e+00 0.0000000e+00 
0.0000000e+00 0.0000000e+00 0.0000000e+00 
0.0000000e+00 0.0000000e+00 0.0000000e+00 
0.0000000e+00 0.0000000e+00 0.0000000e+00 
3.0878964e-01 -9.5112449e-01 -3.3382028e-03 
-7.4860179e-01 6.6301990e-01 -8.1585504e-06 
-7.0804781e-01 7.0616144e-01 2.0779090e-03 
0.0000000e+00 0.0000000e+00 0.0000000e+00 
-7.0580733e-01 7.0840335e-01 8.3316199e-04 
0.0000000e+00 0.0000000e+00 0.0000000e+00 
-8.8576907e-01 4.6411133e-01 -3.7190190e-03 
-9.1151375e-01 4.1126248e-01 2.4251132e-03 
-9.1336262e-01 4.0714249e-01 1.9201464e-03 
6.7605215e-01 -7.3682404e-01 -6.6189384e-03 
0.0000000e+00 0.0000000e+00 0.0000000e+00 
0.0000000e+00 0.0000000e+00 0.0000000e+00 
-6.8986207e-01 7.2390115e-01 -7.5779231e-03 
0.0000000e+00 0.0000000e+00 0.0000000e+00 
0.0000000e+00 0.0000000e+00 0.0000000e+00 
0.0000000e+00 0.0000000e+00 0.0000000e+00 
0.0000000e+00 0.0000000e+00 0.0000000e+00 
-9.2258453e-01 3.8575396e-01 -5.6296261e-03 
-7.8932804e-01 6.1396140e-01 -3.5458468e-03 
0.0000000e+00 0.0000000e+00 0.0000000e+00 
4.7192824e-01 -8.8161582e-01 6.1053499e-03 
0.0000000e+00 0.0000000e+00 0.0000000e+00 
6.4397144e-01 -7.6504683e-01 -2.0302683e-03 
-8.5488957e-01 5.1878077e-01 -5.5091525e-03 
0.0000000e+00 1.0000000e+00 0.0000000e+00 
7.0713580e-01 -7.0707053e-01 3.2009035e-03 
0.0000000e+00 0.0000000e+00 0.0000000e+00 
0.0000000e+00 0.0000000e+00 0.0000000e+00 
0.0000000e+00 0.0000000e+00 0.0000000e+00 
0.0000000e+00 0.0000000e+00 0.0000000e+00 
4.1521096e-01 -9.0969497e-01 7.4130069e-03 
0.0000000e+00 0.0000000e+00 0.0000000e+00 
0.0000000e+00 0.0000000e+00 0.0000000e+00 
0.0000000e+00 0.0000000e+00 0.0000000e+00 
0.0000000e+00 1.0000000e+00 0.0000000e+00 
0.0000000e+00 0.0000000e+00 0.0000000e+00 
0.0000000e+00 1.0000000e+00 0.0000000e+00 
0.0000000e+00 0.0000000e+00 0.0000000e+00 
-6.6327995e-01 7.4836522e-01 3.0342296e-03 
0.0000000e+00 0.0000000e+00 0.0000000e+00 
0.0000000e+00 0.0000000e+00 0.0000000e+00 
0.0000000e+00 0.0000000e+00 0.0000000e+00 
-6.5280652e-01 7.5751126e-01 -4.5030829e-03 
0.0000000e+00 0.0000000e+00 0.0000000e+00 
0.0000000e+00 0.0000000e+00 0.0000000e+00 
0.0000000e+00 0.0000000e+00 0.0000000e+00 
-9.3501329e-01 3.5460424e-01 2.4430698e-03 
-9.4152886e-01 3.3689031e-01 -5.3261830e-03 
7.1841025e-01 -6.9560856e-01 -3.9251028e-03 
7.3439205e-01 -6.7872065e-01 -2.5628218e-03 
-9.3034410e-01 3.6668032e-01 2.3121827e-03 
0.0000000e+00 0.0000000e+00 0.0000000e+00 
-6.4147347e-01 7.6714247e-01 -2.0505565e-03 
3.8247976e-01 -9.2395812e-01 -3.2625690e-03 
0.0000000e+00 0.0000000e+00 0.0000000e+00 
-7.1552497e-01 6.9858319e-01 -2.3624236e-03 
0.0000000e+00 0.0000000e+00 0.0000000e+00 
0.0000000e+00 0.0000000e+00 0.0000000e+00 
-9.4530869e-01 3.2617188e-01 -1.8370175e-03 
0.0000000e+00 0.0000000e+00 0.0000000e+00 
-6.6298461e-01 7.4863303e-01 -2.8838913e-05 
0.0000000e+00 0.0000000e+00 0.0000000e+00 
0.0000000e+00 0.0000000e+00 0.0000000e+00 
7.6043147e-01 -6.4941078e-01 3.0982632e-03 
0.0000000e+00 0.0000000e+00 0.0000000e+00 
-7.8724879e-01 6.1662990e-01 2.6404290e-03 
-8.6591208e-01 5.0016844e-01 5.2660415e-03 
0.0000000e+00 0.0000000e+00 0.0000000e+00 
0.0000000e+00 0.0000000e+00 0.0000000e+00 
0.0000000e+00 0.0000000e+00 0.0000000e+00 
6.4561599e-01 -7.6365733e-01 2.7296219e-03 
4.8848912e-01 -8.7256461e-01 3.0693007e-03 
0.0000000e+00 0.0000000e+00 0.0000000e+00 
-6.1747408e-01 7.8658748e-01 2.4305026e-03 
0.0000000e+00 0.0000000e+00 0.0000000e+00 
-6.1542505e-01 7.8819501e-01 7.9976732e-04 
0.0000000e+00 0.0000000e+00 0.0000000e+00 
-9.1978109e-01 3.9241013e-01 -4.1226433e-03 
0.0000000e+00 0.0000000e+00 0.0000000e+00 
0.0000000e+00 0.0000000e+00 0.0000000e+00 
7.8169745e-01 -6.2364191e-01 -4.4585327e-03 
0.0000000e+00 1.0000000e+00 0.0000000e+00 
0.0000000e+00 1.0000000e+00 0.0000000e+00 
0.0000000e+00 0.0000000e+00 0.0000000e+00 
-9.5471764e-01 2.9750359e-01 2.4089194e-03 
0.0000000e+00 0.0000000e+00 0.0000000e+00 
0.0000000e+00 0.0000000e+00 0.0000000e+00 
0.0000000e+00 0.0000000e+00 0.0000000e+00 
0.0000000e+00 0.0000000e+00 0.0000000e+00 
0.0000000e+00 0.0000000e+00 0.0000000e+00 
7.5067842e-01 -6.6066003e-01 -3.1886890e-03 
8.0905789e-01 -5.8772135e-01 2.9909385e-03 
4.5380807e-01 -8.9109373e-01 -3.1890832e-03 
-5.9590656e-01 8.0303377e-01 -5.6656823e-03 
0.0000000e+00 1.0000000e+00 0.0000000e+00 
0.0000000e+00 0.0000000e+00 0.0000000e+00 
0.0000000e+00 0.0000000e+00 0.0000000e+00 
0.0000000e+00 0.0000000e+00 0.0000000e+00 
0.0000000e+00 0.0000000e+00 0.0000000e+00 
0.0000000e+00 0.0000000e+00 0.0000000e+00 
6.0454518e-01 -7.9654479e-01 6.4484105e-03 
0.0000000e+00 0.0000000e+00 0.0000000e+00 
0.0000000e+00 0.0000000e+00 0.0000000e+00 
-6.9858319e-01 7.1552497e-01 2.3624236e-03 
-9.6272123e-01 2.7044579e-01 -5.1834704e-03 
0.0000000e+00 0.0000000e+00 0.0000000e+00 
-9.5846468e-01 2.8520882e-01 1.1765884e-03 
0.0000000e+00 0.0000000e+00 0.0000000e+00 
8.0652404e-01 -5.9119743e-01 -2.1404580e-03 
0.0000000e+00 0.0000000e+00 0.0000000e+00 
0.0000000e+00 0.0000000e+00 0.0000000e+00 
0.0000000e+00 0.0000000e+00 0.0000000e+00 
8.3499783e-01 -5.5021483e-01 -6.4957496e-03 
-8.2245219e-01 5.6883425e-01 1.8248196e-04 
0.0000000e+00 0.0000000e+00 0.0000000e+00 
0.0000000e+00 0.0000000e+00 0.0000000e+00 
0.0000000e+00 0.0000000e+00 0.0000000e+00 
0.0000000e+00 0.0000000e+00 0.0000000e+00 
0.0000000e+00 0.0000000e+00 0.0000000e+00 
0.0000000e+00 0.0000000e+00 0.0000000e+00 
5.5241185e-01 -8.3353943e-01 7.2913193e-03 
0.0000000e+00 0.0000000e+00 0.0000000e+00 
0.0000000e+00 1.0000000e+00 0.0000000e+00 
8.5265708e-01 -5.2246165e-01 3.1220352e-03 
0.0000000e+00 0.0000000e+00 0.0000000e+00 
0.0000000e+00 0.0000000e+00 0.0000000e+00 
0.0000000e+00 0.0000000e+00 0.0000000e+00 
-5.6818426e-01 8.2289588e-01 2.9971271e-03 
-7.4863303e-01 6.6298461e-01 2.8838913e-05 
-6.2504441e-01 7.8058422e-01 -2.7909456e-03 
0.0000000e+00 0.0000000e+00 0.0000000e+00 
-8.8408369e-01 4.6732381e-01 -2.1214890e-03 
0.0000000e+00 0.0000000e+00 0.0000000e+00 
0.0000000e+00 0.0000000e+00 0.0000000e+00 
-9.2375988e-01 3.8294065e-01 4.9185562e-03 
-5.5531913e-01 8.3162677e-01 -4.1872845e-03 
7.6357615e-01 -6.4571714e-01 -9.1024110e-04 
8.7171286e-01 -4.9000385e-01 -3.6003499e-03 
-9.5994729e-01 2.8018048e-01 -3.4221882e-04 
-9.7093898e-01 2.3931536e-01 2.3706930e-03 
5.2233392e-01 -8.5273540e-01 -3.1055647e-03 
0.0000000e+00 0.0000000e+00 0.0000000e+00 
0.0000000e+00 0.0000000e+00 0.0000000e+00 
0.0000000e+00 0.0000000e+00 0.0000000e+00 
8.9057273e-01 -4.5482633e-01 3.6332053e-03 
0.0000000e+00 0.0000000e+00 0.0000000e+00 
-9.7511458e-01 2.2168845e-01 -2.3943519e-03 
0.0000000e+00 0.0000000e+00 0.0000000e+00 
-5.6883425e-01 8.2245219e-01 -1.8248196e-04 
0.0000000e+00 0.0000000e+00 0.0000000e+00 
-5.4419672e-01 8.3895540e-01 -1.9403682e-03 
0.0000000e+00 0.0000000e+00 0.0000000e+00 
0.0000000e+00 0.0000000e+00 0.0000000e+00 
0.0000000e+00 0.0000000e+00 0.0000000e+00 
8.4201568e-01 -5.3941154e-01 -6.6956272e-03 
0.0000000e+00 0.0000000e+00 0.0000000e+00 
0.0000000e+00 0.0000000e+00 0.0000000e+00 
8.8856065e-01 -4.5867962e-01 -8.5413642e-03 
9.0657938e-01 -4.2201078e-01 -4.5551988e-03 
0.0000000e+00 1.0000000e+00 0.0000000e+00 
0.0000000e+00 0.0000000e+00 0.0000000e+00 
6.1906010e-01 -7.8533787e-01 3.0048771e-03 
-9.7773445e-01 2.0983832e-01 -1.7968050e-03 
0.0000000e+00 0.0000000e+00 0.0000000e+00 
0.0000000e+00 0.0000000e+00 0.0000000e+00 
0.0000000e+00 0.0000000e+00 0.0000000e+00 
0.0000000e+00 1.0000000e+00 0.0000000e+00 
0.0000000e+00 0.0000000e+00 0.0000000e+00 
0.0000000e+00 1.0000000e+00 0.0000000e+00 
9.2328751e-01 -3.8410076e-01 2.6031213e-03 
0.0000000e+00 0.0000000e+00 0.0000000e+00 
0.0000000e+00 0.0000000e+00 0.0000000e+00 
0.0000000e+00 0.0000000e+00 0.0000000e+00 
0.0000000e+00 0.0000000e+00 0.0000000e+00 
0.0000000e+00 0.0000000e+00 0.0000000e+00 
-9.5976800e-01 2.8079411e-01 -2.0387436e-06 
0.0000000e+00 0.0000000e+00 0.0000000e+00 
7.2375441e-01 -6.9002384e-01 6.8322471e-03 
9.3458354e-01 -3.5566154e-01 -7.6451041e-03 
-6.0655564e-01 7.9503685e-01 2.5773833e-03 
0.0000000e+00 0.0000000e+00 0.0000000e+00 
5.8767176e-01 -8.0909389e-01 -3.0081747e-03 
-8.5992557e-01 5.1041400e-01 -2.3524759e-03 
-7.8819501e-01 6.1542505e-01 -7.9976732e-04 
9.5077878e-01 -3.0984849e-01 3.6900910e-03 
-6.6301990e-01 7.4860179e-01 8.1585504e-06 
0.0000000e+00 0.0000000e+00 0.0000000e+00 
-5.2017146e-01 8.5406184e-01 1.8429285e-04 
-5.1812053e-01 8.5530412e-01 2.4508808e-03 
0.0000000e+00 0.0000000e+00 0.0000000e+00 
-9.8306984e-01 1.8322995e-01 -7.2500366e-04 
0.0000000e+00 0.0000000e+00 0.0000000e+00 
9.6151751e-01 -2.7471766e-01 -3.7830502e-03 
0.0000000e+00 0.0000000e+00 0.0000000e+00 
-9.2347747e-01 3.8364124e-01 -2.9520192e-03 
6.7643428e-01 -7.3646170e-01 7.7989190e-03 
0.0000000e+00 0.0000000e+00 0.0000000e+00 
-9.8361725e-01 1.8025462e-01 2.3290706e-03 
9.7203439e-01 -2.3482704e-01 2.3212109e-03 
9.5436358e-01 -2.9862750e-01 -3.4369030e-03 
0.0000000e+00 0.0000000e+00 0.0000000e+00 
0.0000000e+00 0.0000000e+00 0.0000000e+00 
0.0000000e+00 0.0000000e+00 0.0000000e+00 
9.7940344e-01 -2.0180307e-01 -6.6658403e-03 
0.0000000e+00 0.0000000e+00 0.0000000e+00 
-9.8233235e-01 1.8714449e-01 2.1034265e-04 
0.0000000e+00 0.0000000e+00 0.0000000e+00 
9.8807359e-01 -1.5396932e-01 2.0045058e-03 
0.0000000e+00 0.0000000e+00 0.0000000e+00 
0.0000000e+00 0.0000000e+00 0.0000000e+00 
0.0000000e+00 0.0000000e+00 0.0000000e+00 
0.0000000e+00 0.0000000e+00 0.0000000e+00 
9.9404329e-01 -1.0873706e-01 -7.3621972e-03 
0.0000000e+00 0.0000000e+00 0.0000000e+00 
9.9738783e-01 -7.2167099e-02 -3.0651130e-03 
-4.9491060e-01 8.6892873e-01 -5.1350682e-03 
0.0000000e+00 0.0000000e+00 0.0000000e+00 
9.9916029e-01 -4.0972602e-02 0.0000000e+00 
0.0000000e+00 0.0000000e+00 0.0000000e+00 
-7.0840335e-01 7.0580733e-01 -8.3316199e-04 
9.9810612e-01 -6.0685258e-02 -1.0072654e-02 
6.4937419e-01 -7.6046348e-01 -2.9120171e-03 
0.0000000e+00 0.0000000e+00 0.0000000e+00 
0.0000000e+00 0.0000000e+00 0.0000000e+00 
9.9061471e-01 -1.3667668e-01 -1.3946854e-03 
0.0000000e+00 0.0000000e+00 0.0000000e+00 
-9.8800540e-01 1.5438594e-01 -3.2160513e-03 
9.2660373e-01 -3.7602130e-01 3.6739132e-03 
8.7127465e-01 -4.9078396e-01 3.4082888e-03 
0.0000000e+00 0.0000000e+00 0.0000000e+00 
0.0000000e+00 0.0000000e+00 0.0000000e+00 
9.9690384e-01 -7.8630470e-02 0.0000000e+00 
7.3437899e-01 -6.7873508e-01 2.4919594e-03 
0.0000000e+00 0.0000000e+00 0.0000000e+00 
9.7057712e-01 -2.4079031e-01 2.2438941e-04 
0.0000000e+00 0.0000000e+00 0.0000000e+00 
0.0000000e+00 0.0000000e+00 0.0000000e+00 
-9.6015316e-01 2.7947417e-01 3.5954226e-04 
0.0000000e+00 0.0000000e+00 0.0000000e+00 
0.0000000e+00 0.0000000e+00 0.0000000e+00 
0.0000000e+00 0.0000000e+00 0.0000000e+00 
-5.2043086e-01 8.5389316e-01 -4.2673922e-03 
0.0000000e+00 0.0000000e+00 0.0000000e+00 
0.0000000e+00 0.0000000e+00 0.0000000e+00 
0.0000000e+00 0.0000000e+00 0.0000000e+00 
0.0000000e+00 0.0000000e+00 0.0000000e+00 
8.3270884e-01 -5.5356205e-01 1.2846735e-02 
0.0000000e+00 0.0000000e+00 0.0000000e+00 
0.0000000e+00 0.0000000e+00 0.0000000e+00 
0.0000000e+00 0.0000000e+00 0.0000000e+00 
0.0000000e+00 0.0000000e+00 0.0000000e+00 
-9.8252547e-01 1.8612729e-01 -5.9607183e-04 
0.0000000e+00 0.0000000e+00 0.0000000e+00 
0.0000000e+00 0.0000000e+00 0.0000000e+00 
0.0000000e+00 0.0000000e+00 0.0000000e+00 
0.0000000e+00 0.0000000e+00 0.0000000e+00 
0.0000000e+00 0.0000000e+00 0.0000000e+00 
0.0000000e+00 0.0000000e+00 0.0000000e+00 
0.0000000e+00 1.0000000e+00 0.0000000e+00 
-4.6491915e-01 8.8534802e-01 3.0045263e-03 
9.9759960e-01 -6.9137797e-02 3.8758873e-03 
0.0000000e+00 0.0000000e+00 0.0000000e+00 
7.0708078e-01 -7.0712715e-01 -2.8207803e-03 
0.0000000e+00 0.0000000e+00 0.0000000e+00 
-9.9370629e-01 1.1201650e-01 -3.9905327e-04 
0.0000000e+00 0.0000000e+00 0.0000000e+00 
0.0000000e+00 0.0000000e+00 0.0000000e+00 
0.0000000e+00 0.0000000e+00 0.0000000e+00 
0.0000000e+00 0.0000000e+00 0.0000000e+00 
-8.3023745e-01 5.5739725e-01 3.7546821e-03 
0.0000000e+00 0.0000000e+00 0.0000000e+00 
7.8431857e-01 -6.2029731e-01 8.6992951e-03 
-4.5288202e-01 8.9156139e-01 -4.0237312e-03 
0.0000000e+00 0.0000000e+00 0.0000000e+00 
0.0000000e+00 0.0000000e+00 0.0000000e+00 
-9.9270624e-01 1.2053652e-01 2.2835268e-03 
0.0000000e+00 0.0000000e+00 0.0000000e+00 
0.0000000e+00 0.0000000e+00 0.0000000e+00 
9.9226981e-01 -1.2409936e-01 7.2744522e-05 
0.0000000e+00 0.0000000e+00 0.0000000e+00 
-8.9149988e-01 4.5296434e-01 7.1601728e-03 
0.0000000e+00 0.0000000e+00 0.0000000e+00 
9.6930361e-01 -2.4586652e-01 -3.8984473e-04 
-7.5751126e-01 6.5280652e-01 4.5030829e-03 
0.0000000e+00 0.0000000e+00 0.0000000e+00 
0.0000000e+00 1.0000000e+00 0.0000000e+00 
-4.6766111e-01 8.8389343e-01 -5.0441287e-03 
0.0000000e+00 0.0000000e+00 0.0000000e+00 
-5.6709564e-01 8.2365197e-01 -4.7873193e-05 
0.0000000e+00 0.0000000e+00 0.0000000e+00 
0.0000000e+00 0.0000000e+00 0.0000000e+00 
-4.3936512e-01 8.9830613e-01 -2.1046149e-03 
0.0000000e+00 0.0000000e+00 0.0000000e+00 
0.0000000e+00 0.0000000e+00 0.0000000e+00 
-4.9801901e-01 8.6715114e-01 5.0991015e-03 
0.0000000e+00 0.0000000e+00 0.0000000e+00 
0.0000000e+00 0.0000000e+00 0.0000000e+00 
8.3151716e-01 -5.5549592e-01 1.8646424e-03 
0.0000000e+00 0.0000000e+00 0.0000000e+00 
-6.1620808e-01 7.8758276e-01 -9.8708598e-04 
-9.8257017e-01 1.8589105e-01 6.3893455e-04 
7.6041847e-01 -6.4942783e-01 -2.7028953e-03 
0.0000000e+00 0.0000000e+00 0.0000000e+00 
0.0000000e+00 0.0000000e+00 0.0000000e+00 
0.0000000e+00 0.0000000e+00 0.0000000e+00 
0.0000000e+00 0.0000000e+00 0.0000000e+00 
0.0000000e+00 0.0000000e+00 0.0000000e+00 
9.2114031e-01 -3.8921174e-01 3.8404872e-03 
-9.9676597e-01 8.0253981e-02 -4.1155182e-03 
0.0000000e+00 0.0000000e+00 0.0000000e+00 
9.9803466e-01 -6.2658861e-02 -8.4567181e-04 
-4.1465774e-01 9.0997386e-01 2.5593638e-03 
0.0000000e+00 0.0000000e+00 0.0000000e+00 
0.0000000e+00 0.0000000e+00 0.0000000e+00 
0.0000000e+00 0.0000000e+00 0.0000000e+00 
-9.6544147e-01 2.6061991e-01 -8.3431260e-05 
0.0000000e+00 0.0000000e+00 0.0000000e+00 
-9.9540353e-01 9.5769018e-02 3.7939774e-04 
0.0000000e+00 0.0000000e+00 0.0000000e+00 
0.0000000e+00 0.0000000e+00 0.0000000e+00 
0.0000000e+00 0.0000000e+00 0.0000000e+00 
0.0000000e+00 0.0000000e+00 0.0000000e+00 
0.0000000e+00 0.0000000e+00 0.0000000e+00 
0.0000000e+00 0.0000000e+00 0.0000000e+00 
0.0000000e+00 0.0000000e+00 0.0000000e+00 
8.7466955e-01 -4.8458272e-01 1.1524502e-02 
0.0000000e+00 0.0000000e+00 0.0000000e+00 
9.9251658e-01 -1.2210388e-01 1.2330117e-03 
0.0000000e+00 0.0000000e+00 0.0000000e+00 
0.0000000e+00 0.0000000e+00 0.0000000e+00 
8.0907840e-01 -5.8769506e-01 -2.5876148e-03 
0.0000000e+00 0.0000000e+00 0.0000000e+00 
0.0000000e+00 0.0000000e+00 0.0000000e+00 
-8.0303377e-01 5.9590656e-01 5.6656823e-03 
0.0000000e+00 0.0000000e+00 0.0000000e+00 
0.0000000e+00 0.0000000e+00 0.0000000e+00 
9.7114885e-01 -2.3839916e-01 5.9824400e-03 
0.0000000e+00 0.0000000e+00 0.0000000e+00 
-8.6652595e-01 4.9911675e-01 3.8996665e-03 
-4.1135660e-01 9.1147143e-01 2.3605365e-03 
-9.9563122e-01 9.3372732e-02 2.4828766e-04 
-8.3789057e-01 5.4583699e-01 1.1769574e-03 
0.0000000e+00 0.0000000e+00 0.0000000e+00 
0.0000000e+00 0.0000000e+00 0.0000000e+00 
0.0000000e+00 0.0000000e+00 0.0000000e+00 
0.0000000e+00 0.0000000e+00 0.0000000e+00 
0.0000000e+00 0.0000000e+00 0.0000000e+00 
0.0000000e+00 0.0000000e+00 0.0000000e+00 
0.0000000e+00 0.0000000e+00 0.0000000e+00 
0.0000000e+00 0.0000000e+00 0.0000000e+00 
-6.6339552e-01 7.4823868e-01 6.7266054e-03 
0.0000000e+00 0.0000000e+00 0.0000000e+00 
0.0000000e+00 0.0000000e+00 0.0000000e+00 
-9.9846345e-01 5.5370450e-02 -2.2146471e-03 
0.0000000e+00 0.0000000e+00 0.0000000e+00 
-9.4274861e-01 3.3347329e-01 4.5474493e-03 
-7.6714247e-01 6.4147347e-01 2.0505565e-03 
0.0000000e+00 0.0000000e+00 0.0000000e+00 
0.0000000e+00 0.0000000e+00 0.0000000e+00 
0.0000000e+00 0.0000000e+00 0.0000000e+00 
0.0000000e+00 0.0000000e+00 0.0000000e+00 
9.9814266e-01 -6.0891319e-02 1.8523777e-03 
9.0968353e-01 -4.1528302e-01 3.9943773e-03 
0.0000000e+00 1.0000000e+00 0.0000000e+00 
0.0000000e+00 0.0000000e+00 0.0000000e+00 
0.0000000e+00 0.0000000e+00 0.0000000e+00 
8.5270727e-01 -5.2238190e-01 -2.7379605e-03 
-9.8309618e-01 1.8306208e-01 -3.1872992e-03 
0.0000000e+00 0.0000000e+00 0.0000000e+00 
0.0000000e+00 0.0000000e+00 0.0000000e+00 
0.0000000e+00 0.0000000e+00 0.0000000e+00 
0.0000000e+00 0.0000000e+00 0.0000000e+00 
-7.2390115e-01 6.8986207e-01 7.5779231e-03 
0.0000000e+00 0.0000000e+00 0.0000000e+00 
0.0000000e+00 0.0000000e+00 0.0000000e+00 
0.0000000e+00 0.0000000e+00 0.0000000e+00 
0.0000000e+00 0.0000000e+00 0.0000000e+00 
0.0000000e+00 0.0000000e+00 0.0000000e+00 
-8.9706278e-01 4.4189173e-01 3.1726703e-03 
9.4161910e-01 -3.3661613e-01 6.5574525e-03 
0.0000000e+00 0.0000000e+00 0.0000000e+00 
0.0000000e+00 0.0000000e+00 0.0000000e+00 
0.0000000e+00 0.0000000e+00 0.0000000e+00 
0.0000000e+00 0.0000000e+00 0.0000000e+00 
0.0000000e+00 0.0000000e+00 0.0000000e+00 
0.0000000e+00 0.0000000e+00 0.0000000e+00 
-3.8675350e-01 9.2216527e-01 -5.7434938e-03 
0.0000000e+00 0.0000000e+00 0.0000000e+00 
0.0000000e+00 0.0000000e+00 0.0000000e+00 
0.0000000e+00 0.0000000e+00 0.0000000e+00 
8.9182776e-01 -4.5237029e-01 -2.0957147e-03 
0.0000000e+00 0.0000000e+00 0.0000000e+00 
0.0000000e+00 0.0000000e+00 0.0000000e+00 
0.0000000e+00 0.0000000e+00 0.0000000e+00 
0.0000000e+00 0.0000000e+00 0.0000000e+00 
-9.9575412e-01 9.2053033e-02 2.6464128e-05 
9.9379951e-01 -1.1109177e-01 4.5949034e-03 
0.0000000e+00 0.0000000e+00 0.0000000e+00 
0.0000000e+00 0.0000000e+00 0.0000000e+00 
0.0000000e+00 0.0000000e+00 0.0000000e+00 
-8.2289588e-01 5.6818426e-01 -2.9971271e-03 
9.6356320e-01 -2.6745147e-01 3.9559333e-03 
0.0000000e+00 0.0000000e+00 0.0000000e+00 
0.0000000e+00 0.0000000e+00 0.0000000e+00 
0.0000000e+00 0.0000000e+00 0.0000000e+00 
-9.2211688e-01 3.8682994e-01 7.9411548e-03 
0.0000000e+00 0.0000000e+00 0.0000000e+00 
-7.8658748e-01 6.1747408e-01 -2.4305026e-03 
0.0000000e+00 0.0000000e+00 0.0000000e+00 
-8.5447526e-01 5.1948297e-01 -3.0887835e-03 
9.8109055e-01 -1.9350153e-01 4.3045674e-03 
0.0000000e+00 0.0000000e+00 0.0000000e+00 
0.0000000e+00 0.0000000e+00 0.0000000e+00 
0.0000000e+00 0.0000000e+00 0.0000000e+00 
0.0000000e+00 0.0000000e+00 0.0000000e+00 
-6.8400216e-01 7.2947180e-01 3.4436001e-03 
0.0000000e+00 0.0000000e+00 0.0000000e+00 
9.2437470e-01 -3.8147005e-01 -3.4625633e-03 
0.0000000e+00 0.0000000e+00 0.0000000e+00 
-5.1618212e-01 8.5647875e-01 -3.8378284e-04 
9.9868345e-01 -5.1171724e-02 3.5801143e-03 
0.0000000e+00 0.0000000e+00 0.0000000e+00 
-7.4836522e-01 6.6327995e-01 -3.0342296e-03 
0.0000000e+00 0.0000000e+00 0.0000000e+00 
-8.8450390e-01 4.6652803e-01 -2.1013499e-03 
-3.6896804e-01 9.2942625e-01 5.4250560e-03 
0.0000000e+00 0.0000000e+00 0.0000000e+00 
0.0000000e+00 0.0000000e+00 0.0000000e+00 
0.0000000e+00 0.0000000e+00 0.0000000e+00 
-4.6308684e-01 8.8630259e-01 4.2749769e-03 
0.0000000e+00 0.0000000e+00 0.0000000e+00 
0.0000000e+00 0.0000000e+00 0.0000000e+00 
0.0000000e+00 0.0000000e+00 0.0000000e+00 
0.0000000e+00 0.0000000e+00 0.0000000e+00 
0.0000000e+00 0.0000000e+00 0.0000000e+00 
9.5176184e-01 -3.0682862e-01 -2.3547739e-03 
0.0000000e+00 0.0000000e+00 0.0000000e+00 
0.0000000e+00 0.0000000e+00 0.0000000e+00 
0.0000000e+00 0.0000000e+00 0.0000000e+00 
-3.5473007e-01 9.3496430e-01 2.8875072e-03 
-9.9845749e-01 5.5265207e-02 -5.3277556e-03 
-9.4531095e-01 3.2616687e-01 1.5458665e-03 
-7.0616144e-01 7.0804781e-01 -2.0779090e-03 
-9.9917930e-01 4.0257908e-02 -4.4739991e-03 
0.0000000e+00 0.0000000e+00 0.0000000e+00 
0.0000000e+00 0.0000000e+00 0.0000000e+00 
0.0000000e+00 0.0000000e+00 0.0000000e+00 
-6.4144313e-01 7.6716310e-01 3.3857517e-03 
0.0000000e+00 0.0000000e+00 0.0000000e+00 
9.7278136e-01 -2.3169218e-01 -3.8955652e-03 
-9.1134363e-01 4.1164148e-01 -2.0261374e-03 
0.0000000e+00 0.0000000e+00 0.0000000e+00 
0.0000000e+00 0.0000000e+00 0.0000000e+00 
-9.9954379e-01 3.0203030e-02 0.0000000e+00 
-9.9854457e-01 5.3770620e-02 4.1730134e-03 
-3.4059429e-01 9.4018477e-01 -6.9387774e-03 
0.0000000e+00 0.0000000e+00 0.0000000e+00 
0.0000000e+00 0.0000000e+00 0.0000000e+00 
-9.9565619e-01 9.3105890e-02 -2.1969655e-04 
-3.9285883e-01 9.1959167e-01 -3.6169551e-03 
0.0000000e+00 0.0000000e+00 0.0000000e+00 
9.8803121e-01 -1.5423644e-01 -2.3303577e-03 
0.0000000e+00 0.0000000e+00 0.0000000e+00 
0.0000000e+00 0.0000000e+00 0.0000000e+00 
-5.5720538e-01 8.3036166e-01 4.6545225e-03 
0.0000000e+00 0.0000000e+00 0.0000000e+00 
0.0000000e+00 0.0000000e+00 0.0000000e+00 
9.9754727e-01 -6.9979876e-02 1.5010993e-03 
9.9912339e-01 -4.1862510e-02 0.0000000e+00 
-9.9890900e-01 4.6699576e-02 0.0000000e+00 
0.0000000e+00 0.0000000e+00 0.0000000e+00 
0.0000000e+00 0.0000000e+00 0.0000000e+00 
0.0000000e+00 0.0000000e+00 0.0000000e+00 
-3.2758096e-01 9.4482124e-01 -1.8797120e-03 
0.0000000e+00 0.0000000e+00 0.0000000e+00 
-9.7465175e-01 2.2355126e-01 8.8763665e-03 
0.0000000e+00 0.0000000e+00 0.0000000e+00 
0.0000000e+00 0.0000000e+00 0.0000000e+00 
-6.6282147e-01 7.4876761e-01 -3.8424055e-03 
0.0000000e+00 0.0000000e+00 0.0000000e+00 
0.0000000e+00 0.0000000e+00 0.0000000e+00 
0.0000000e+00 0.0000000e+00 0.0000000e+00 
-9.3501329e-01 3.5460424e-01 -2.4430698e-03 
0.0000000e+00 0.0000000e+00 0.0000000e+00 
0.0000000e+00 0.0000000e+00 0.0000000e+00 
0.0000000e+00 0.0000000e+00 0.0000000e+00 
-5.9780222e-01 8.0160534e-01 7.8316201e-03 
0.0000000e+00 0.0000000e+00 0.0000000e+00 
-9.6291637e-01 2.6977220e-01 3.8696297e-03 
0.0000000e+00 0.0000000e+00 0.0000000e+00 
0.0000000e+00 0.0000000e+00 0.0000000e+00 
0.0000000e+00 0.0000000e+00 0.0000000e+00 
0.0000000e+00 0.0000000e+00 0.0000000e+00 
0.0000000e+00 0.0000000e+00 0.0000000e+00 
0.0000000e+00 0.0000000e+00 0.0000000e+00 
0.0000000e+00 0.0000000e+00 0.0000000e+00 
0.0000000e+00 0.0000000e+00 0.0000000e+00 
0.0000000e+00 0.0000000e+00 0.0000000e+00 
-9.9894547e-01 4.5909934e-02 4.3704725e-04 
0.0000000e+00 0.0000000e+00 0.0000000e+00 
0.0000000e+00 0.0000000e+00 0.0000000e+00 
0.0000000e+00 0.0000000e+00 0.0000000e+00 
0.0000000e+00 0.0000000e+00 0.0000000e+00 
0.0000000e+00 0.0000000e+00 0.0000000e+00 
-3.8220698e-01 9.2406517e-01 4.6199197e-03 
0.0000000e+00 0.0000000e+00 0.0000000e+00 
0.0000000e+00 0.0000000e+00 0.0000000e+00 
0.0000000e+00 -1.0000000e+00 0.0000000e+00 
0.0000000e+00 0.0000000e+00 0.0000000e+00 
0.0000000e+00 0.0000000e+00 0.0000000e+00 
0.0000000e+00 0.0000000e+00 0.0000000e+00 
-9.9641973e-01 8.4534481e-02 -1.2978497e-03 
0.0000000e+00 0.0000000e+00 0.0000000e+00 
-6.1783606e-01 7.8630334e-01 -2.3757643e-03 
0.0000000e+00 0.0000000e+00 0.0000000e+00 
0.0000000e+00 0.0000000e+00 0.0000000e+00 
0.0000000e+00 0.0000000e+00 0.0000000e+00 
0.0000000e+00 0.0000000e+00 0.0000000e+00 
0.0000000e+00 0.0000000e+00 0.0000000e+00 
0.0000000e+00 0.0000000e+00 0.0000000e+00 
0.0000000e+00 -1.0000000e+00 0.0000000e+00 
-9.5471764e-01 2.9750359e-01 -2.4089194e-03 
0.0000000e+00 0.0000000e+00 0.0000000e+00 
0.0000000e+00 0.0000000e+00 0.0000000e+00 
0.0000000e+00 0.0000000e+00 0.0000000e+00 
0.0000000e+00 0.0000000e+00 0.0000000e+00 
0.0000000e+00 0.0000000e+00 0.0000000e+00 
0.0000000e+00 0.0000000e+00 0.0000000e+00 
0.0000000e+00 0.0000000e+00 0.0000000e+00 
-2.9837456e-01 9.5444596e-01 2.3526999e-03 
0.0000000e+00 0.0000000e+00 0.0000000e+00 
0.0000000e+00 0.0000000e+00 0.0000000e+00 
0.0000000e+00 0.0000000e+00 0.0000000e+00 
0.0000000e+00 0.0000000e+00 0.0000000e+00 
0.0000000e+00 0.0000000e+00 0.0000000e+00 
0.0000000e+00 0.0000000e+00 0.0000000e+00 
-5.4436874e-01 8.3884352e-01 2.0611382e-03 
-9.7773051e-01 2.0985092e-01 2.3813793e-03 
0.0000000e+00 0.0000000e+00 0.0000000e+00 
0.0000000e+00 0.0000000e+00 0.0000000e+00 
0.0000000e+00 0.0000000e+00 0.0000000e+00 
0.0000000e+00 0.0000000e+00 0.0000000e+00 
0.0000000e+00 0.0000000e+00 0.0000000e+00 
0.0000000e+00 0.0000000e+00 0.0000000e+00 
0.0000000e+00 0.0000000e+00 0.0000000e+00 
0.0000000e+00 0.0000000e+00 0.0000000e+00 
0.0000000e+00 0.0000000e+00 0.0000000e+00 
-9.9894446e-01 4.5932334e-02 -4.1477598e-04 
0.0000000e+00 0.0000000e+00 0.0000000e+00 
0.0000000e+00 0.0000000e+00 0.0000000e+00 
0.0000000e+00 0.0000000e+00 0.0000000e+00 
0.0000000e+00 0.0000000e+00 0.0000000e+00 
0.0000000e+00 0.0000000e+00 0.0000000e+00 
0.0000000e+00 0.0000000e+00 0.0000000e+00 
0.0000000e+00 0.0000000e+00 0.0000000e+00 
0.0000000e+00 0.0000000e+00 0.0000000e+00 
-9.9199861e-01 1.2622173e-01 2.6012571e-03 
0.0000000e+00 0.0000000e+00 0.0000000e+00 
-4.0649998e-01 9.1364819e-01 -2.1831819e-03 
-2.8839412e-01 9.5750844e-01 2.5421446e-03 
0.0000000e+00 0.0000000e+00 0.0000000e+00 
-5.6822717e-01 8.2286614e-01 -3.0341109e-03 
0.0000000e+00 0.0000000e+00 0.0000000e+00 
0.0000000e+00 0.0000000e+00 0.0000000e+00 
-2.7158529e-01 9.6239865e-01 -5.5035758e-03 
0.0000000e+00 0.0000000e+00 0.0000000e+00 
-3.6595318e-01 9.3062824e-01 -3.0564584e-03 
0.0000000e+00 -1.0000000e+00 0.0000000e+00 
-9.7093898e-01 2.3931536e-01 -2.3706930e-03 
0.0000000e+00 -1.0000000e+00 0.0000000e+00 
0.0000000e+00 0.0000000e+00 0.0000000e+00 
0.0000000e+00 0.0000000e+00 0.0000000e+00 
0.0000000e+00 0.0000000e+00 0.0000000e+00 
0.0000000e+00 0.0000000e+00 0.0000000e+00 
0.0000000e+00 0.0000000e+00 0.0000000e+00 
-4.5023972e-01 8.9289618e-01 4.5438260e-03 
0.0000000e+00 0.0000000e+00 0.0000000e+00 
0.0000000e+00 0.0000000e+00 0.0000000e+00 
0.0000000e+00 0.0000000e+00 0.0000000e+00 
0.0000000e+00 0.0000000e+00 0.0000000e+00 
0.0000000e+00 0.0000000e+00 0.0000000e+00 
-2.8018048e-01 9.5994729e-01 -3.4221882e-04 
0.0000000e+00 0.0000000e+00 0.0000000e+00 
0.0000000e+00 0.0000000e+00 0.0000000e+00 
0.0000000e+00 0.0000000e+00 0.0000000e+00 
0.0000000e+00 0.0000000e+00 0.0000000e+00 
-4.9486038e-01 8.6895329e-01 5.7755010e-03 
0.0000000e+00 0.0000000e+00 0.0000000e+00 
0.0000000e+00 -1.0000000e+00 0.0000000e+00 
0.0000000e+00 0.0000000e+00 0.0000000e+00 
0.0000000e+00 0.0000000e+00 0.0000000e+00 
-9.8788184e-01 1.5514876e-01 4.2818878e-03 
0.0000000e+00 -1.0000000e+00 0.0000000e+00 
-9.9892765e-01 4.6297509e-02 2.4013149e-04 
0.0000000e+00 0.0000000e+00 0.0000000e+00 
0.0000000e+00 0.0000000e+00 0.0000000e+00 
0.0000000e+00 0.0000000e+00 0.0000000e+00 
0.0000000e+00 0.0000000e+00 0.0000000e+00 
0.0000000e+00 0.0000000e+00 0.0000000e+00 
0.0000000e+00 0.0000000e+00 0.0000000e+00 
0.0000000e+00 0.0000000e+00 0.0000000e+00 
0.0000000e+00 0.0000000e+00 0.0000000e+00 
-5.1819235e-01 8.5526067e-01 -2.4196026e-03 
-2.3931536e-01 9.7093898e-01 2.3706930e-03 
0.0000000e+00 0.0000000e+00 0.0000000e+00 
0.0000000e+00 0.0000000e+00 0.0000000e+00 
0.0000000e+00 0.0000000e+00 0.0000000e+00 
0.0000000e+00 0.0000000e+00 0.0000000e+00 
-2.8079411e-01 9.5976800e-01 -2.0387436e-06 
0.0000000e+00 -1.0000000e+00 0.0000000e+00 
0.0000000e+00 0.0000000e+00 0.0000000e+00 
-9.8361725e-01 1.8025462e-01 -2.3290706e-03 
0.0000000e+00 0.0000000e+00 0.0000000e+00 
0.0000000e+00 0.0000000e+00 0.0000000e+00 
0.0000000e+00 0.0000000e+00 0.0000000e+00 
0.0000000e+00 0.0000000e+00 0.0000000e+00 
0.0000000e+00 0.0000000e+00 0.0000000e+00 
0.0000000e+00 0.0000000e+00 0.0000000e+00 
0.0000000e+00 0.0000000e+00 0.0000000e+00 
0.0000000e+00 0.0000000e+00 0.0000000e+00 
0.0000000e+00 -1.0000000e+00 0.0000000e+00 
-2.2233337e-01 9.7496766e-01 -2.4268259e-03 
0.0000000e+00 0.0000000e+00 0.0000000e+00 
0.0000000e+00 0.0000000e+00 0.0000000e+00 
0.0000000e+00 0.0000000e+00 0.0000000e+00 
0.0000000e+00 0.0000000e+00 0.0000000e+00 
0.0000000e+00 0.0000000e+00 0.0000000e+00 
0.0000000e+00 0.0000000e+00 0.0000000e+00 
0.0000000e+00 0.0000000e+00 0.0000000e+00 
0.0000000e+00 0.0000000e+00 0.0000000e+00 
0.0000000e+00 0.0000000e+00 0.0000000e+00 
0.0000000e+00 0.0000000e+00 0.0000000e+00 
-2.0983902e-01 9.7773427e-01 -1.8291856e-03 
0.0000000e+00 -1.0000000e+00 0.0000000e+00 
-9.9855649e-01 5.3500120e-02 -4.7643008e-03 
0.0000000e+00 0.0000000e+00 0.0000000e+00 
-4.3909922e-01 8.9843655e-01 1.9173196e-03 
0.0000000e+00 0.0000000e+00 0.0000000e+00 
0.0000000e+00 0.0000000e+00 0.0000000e+00 
-9.9677926e-01 8.0085568e-02 4.1776909e-03 
0.0000000e+00 0.0000000e+00 0.0000000e+00 
0.0000000e+00 0.0000000e+00 0.0000000e+00 
0.0000000e+00 0.0000000e+00 0.0000000e+00 
0.0000000e+00 0.0000000e+00 0.0000000e+00 
0.0000000e+00 0.0000000e+00 0.0000000e+00 
0.0000000e+00 0.0000000e+00 0.0000000e+00 
0.0000000e+00 0.0000000e+00 0.0000000e+00 
-4.6482536e-01 8.8539743e-01 -2.9658591e-03 
0.0000000e+00 0.0000000e+00 0.0000000e+00 
-2.7947417e-01 9.6015316e-01 3.5954226e-04 
0.0000000e+00 0.0000000e+00 0.0000000e+00 
0.0000000e+00 0.0000000e+00 0.0000000e+00 
0.0000000e+00 0.0000000e+00 0.0000000e+00 
0.0000000e+00 0.0000000e+00 0.0000000e+00 
0.0000000e+00 0.0000000e+00 0.0000000e+00 
0.0000000e+00 0.0000000e+00 0.0000000e+00 
-9.9270624e-01 1.2053652e-01 -2.2835268e-03 
0.0000000e+00 0.0000000e+00 0.0000000e+00 
0.0000000e+00 0.0000000e+00 0.0000000e+00 
0.0000000e+00 0.0000000e+00 0.0000000e+00 
0.0000000e+00 -1.0000000e+00 0.0000000e+00 
0.0000000e+00 -1.0000000e+00 0.0000000e+00 
0.0000000e+00 0.0000000e+00 0.0000000e+00 
0.0000000e+00 0.0000000e+00 0.0000000e+00 
0.0000000e+00 -1.0000000e+00 0.0000000e+00 
0.0000000e+00 -1.0000000e+00 0.0000000e+00 
-1.8327142e-01 9.8306209e-01 -6.8382279e-04 
0.0000000e+00 0.0000000e+00 0.0000000e+00 
0.0000000e+00 0.0000000e+00 0.0000000e+00 
0.0000000e+00 0.0000000e+00 0.0000000e+00 
0.0000000e+00 0.0000000e+00 0.0000000e+00 
0.0000000e+00 -1.0000000e+00 0.0000000e+00 
0.0000000e+00 0.0000000e+00 0.0000000e+00 
0.0000000e+00 0.0000000e+00 0.0000000e+00 
-1.8025462e-01 9.8361725e-01 2.3290706e-03 
0.0000000e+00 0.0000000e+00 0.0000000e+00 
0.0000000e+00 0.0000000e+00 0.0000000e+00 
0.0000000e+00 0.0000000e+00 0.0000000e+00 
0.0000000e+00 0.0000000e+00 0.0000000e+00 
-1.8714449e-01 9.8233235e-01 2.1034265e-04 
0.0000000e+00 0.0000000e+00 0.0000000e+00 
0.0000000e+00 0.0000000e+00 0.0000000e+00 
0.0000000e+00 0.0000000e+00 0.0000000e+00 
0.0000000e+00 -1.0000000e+00 0.0000000e+00 
-9.9847078e-01 5.5016853e-02 5.4122126e-03 
0.0000000e+00 0.0000000e+00 0.0000000e+00 
0.0000000e+00 0.0000000e+00 0.0000000e+00 
0.0000000e+00 0.0000000e+00 0.0000000e+00 
0.0000000e+00 0.0000000e+00 0.0000000e+00 
0.0000000e+00 0.0000000e+00 0.0000000e+00 
0.0000000e+00 0.0000000e+00 0.0000000e+00 
0.0000000e+00 0.0000000e+00 0.0000000e+00 
-3.8567406e-01 9.2261744e-01 5.7069333e-03 
0.0000000e+00 0.0000000e+00 0.0000000e+00 
-3.3706957e-01 9.4146156e-01 5.8515794e-03 
0.0000000e+00 0.0000000e+00 0.0000000e+00 
0.0000000e+00 0.0000000e+00 0.0000000e+00 
-2.7690333e-01 9.6089435e-01 -2.5672172e-03 
0.0000000e+00 0.0000000e+00 0.0000000e+00 
0.0000000e+00 0.0000000e+00 0.0000000e+00 
0.0000000e+00 0.0000000e+00 0.0000000e+00 
0.0000000e+00 0.0000000e+00 0.0000000e+00 
0.0000000e+00 0.0000000e+00 0.0000000e+00 
-4.1126248e-01 9.1151375e-01 -2.4251142e-03 
0.0000000e+00 0.0000000e+00 0.0000000e+00 
0.0000000e+00 0.0000000e+00 0.0000000e+00 
0.0000000e+00 0.0000000e+00 0.0000000e+00 
0.0000000e+00 -1.0000000e+00 0.0000000e+00 
0.0000000e+00 -1.0000000e+00 0.0000000e+00 
0.0000000e+00 0.0000000e+00 0.0000000e+00 
0.0000000e+00 0.0000000e+00 0.0000000e+00 
-1.8612729e-01 9.8252547e-01 -5.9607183e-04 
-9.9846828e-01 5.5281401e-02 2.2544477e-03 
0.0000000e+00 0.0000000e+00 0.0000000e+00 
-1.5442930e-01 9.8799843e-01 -3.2749120e-03 
0.0000000e+00 0.0000000e+00 0.0000000e+00 
0.0000000e+00 0.0000000e+00 0.0000000e+00 
0.0000000e+00 0.0000000e+00 0.0000000e+00 
0.0000000e+00 0.0000000e+00 0.0000000e+00 
0.0000000e+00 0.0000000e+00 0.0000000e+00 
0.0000000e+00 0.0000000e+00 0.0000000e+00 
0.0000000e+00 0.0000000e+00 0.0000000e+00 
0.0000000e+00 0.0000000e+00 0.0000000e+00 
-9.9918270e-01 4.0168811e-02 4.5137834e-03 
0.0000000e+00 0.0000000e+00 0.0000000e+00 
0.0000000e+00 0.0000000e+00 0.0000000e+00 
0.0000000e+00 0.0000000e+00 0.0000000e+00 
0.0000000e+00 0.0000000e+00 0.0000000e+00 
0.0000000e+00 0.0000000e+00 0.0000000e+00 
0.0000000e+00 0.0000000e+00 0.0000000e+00 
0.0000000e+00 0.0000000e+00 0.0000000e+00 
-1.8589105e-01 9.8257017e-01 6.3893455e-04 
0.0000000e+00 -1.0000000e+00 0.0000000e+00 
0.0000000e+00 0.0000000e+00 0.0000000e+00 
0.0000000e+00 0.0000000e+00 0.0000000e+00 
0.0000000e+00 0.0000000e+00 0.0000000e+00 
0.0000000e+00 0.0000000e+00 0.0000000e+00 
0.0000000e+00 0.0000000e+00 0.0000000e+00 
0.0000000e+00 0.0000000e+00 0.0000000e+00 
0.0000000e+00 0.0000000e+00 0.0000000e+00 
0.0000000e+00 0.0000000e+00 0.0000000e+00 
-1.1208475e-01 9.9369860e-01 -3.7729510e-04 
-3.2617188e-01 9.4530869e-01 1.8343538e-03 
0.0000000e+00 0.0000000e+00 0.0000000e+00 
0.0000000e+00 0.0000000e+00 0.0000000e+00 
-1.2053652e-01 9.9270624e-01 2.2835268e-03 
0.0000000e+00 0.0000000e+00 0.0000000e+00 
0.0000000e+00 0.0000000e+00 0.0000000e+00 
0.0000000e+00 0.0000000e+00 0.0000000e+00 
0.0000000e+00 0.0000000e+00 0.0000000e+00 
0.0000000e+00 -1.0000000e+00 0.0000000e+00 
-3.5460424e-01 9.3501329e-01 -2.4430698e-03 
0.0000000e+00 0.0000000e+00 0.0000000e+00 
0.0000000e+00 0.0000000e+00 0.0000000e+00 
0.0000000e+00 0.0000000e+00 0.0000000e+00 
0.0000000e+00 0.0000000e+00 0.0000000e+00 
-9.9954379e-01 3.0203030e-02 0.0000000e+00 
0.0000000e+00 0.0000000e+00 0.0000000e+00 
0.0000000e+00 0.0000000e+00 0.0000000e+00 
0.0000000e+00 -1.0000000e+00 0.0000000e+00 
-1.8306208e-01 9.8309618e-01 -3.1872992e-03 
0.0000000e+00 0.0000000e+00 0.0000000e+00 
0.0000000e+00 0.0000000e+00 0.0000000e+00 
0.0000000e+00 -1.0000000e+00 0.0000000e+00 
0.0000000e+00 0.0000000e+00 0.0000000e+00 
0.0000000e+00 0.0000000e+00 0.0000000e+00 
0.0000000e+00 0.0000000e+00 0.0000000e+00 
0.0000000e+00 0.0000000e+00 0.0000000e+00 
0.0000000e+00 0.0000000e+00 0.0000000e+00 
0.0000000e+00 0.0000000e+00 0.0000000e+00 
-8.0253981e-02 9.9676597e-01 -4.1155182e-03 
0.0000000e+00 0.0000000e+00 0.0000000e+00 
0.0000000e+00 0.0000000e+00 0.0000000e+00 
0.0000000e+00 0.0000000e+00 0.0000000e+00 
0.0000000e+00 0.0000000e+00 0.0000000e+00 
0.0000000e+00 0.0000000e+00 0.0000000e+00 
-9.5769018e-02 9.9540353e-01 3.7939774e-04 
0.0000000e+00 0.0000000e+00 0.0000000e+00 
0.0000000e+00 0.0000000e+00 0.0000000e+00 
0.0000000e+00 0.0000000e+00 0.0000000e+00 
0.0000000e+00 0.0000000e+00 0.0000000e+00 
0.0000000e+00 0.0000000e+00 0.0000000e+00 
0.0000000e+00 0.0000000e+00 0.0000000e+00 
0.0000000e+00 0.0000000e+00 0.0000000e+00 
0.0000000e+00 0.0000000e+00 0.0000000e+00 
0.0000000e+00 0.0000000e+00 0.0000000e+00 
0.0000000e+00 -1.0000000e+00 0.0000000e+00 
0.0000000e+00 0.0000000e+00 0.0000000e+00 
-9.3372732e-02 9.9563122e-01 2.4828766e-04 
-2.7045125e-01 9.6272147e-01 4.8513645e-03 
0.0000000e+00 0.0000000e+00 0.0000000e+00 
0.0000000e+00 0.0000000e+00 0.0000000e+00 
-2.9750359e-01 9.5471764e-01 -2.4089194e-03 
0.0000000e+00 -1.0000000e+00 0.0000000e+00 
0.0000000e+00 0.0000000e+00 0.0000000e+00 
0.0000000e+00 0.0000000e+00 0.0000000e+00 
-2.2483067e-01 9.7435385e-01 9.2576835e-03 
0.0000000e+00 0.0000000e+00 0.0000000e+00 
0.0000000e+00 0.0000000e+00 0.0000000e+00 
0.0000000e+00 0.0000000e+00 0.0000000e+00 
-5.5370450e-02 9.9846345e-01 -2.2146471e-03 
0.0000000e+00 0.0000000e+00 0.0000000e+00 
0.0000000e+00 0.0000000e+00 0.0000000e+00 
0.0000000e+00 0.0000000e+00 0.0000000e+00 
0.0000000e+00 -1.0000000e+00 0.0000000e+00 
0.0000000e+00 0.0000000e+00 0.0000000e+00 
-9.2053033e-02 9.9575412e-01 2.6464128e-05 
0.0000000e+00 0.0000000e+00 0.0000000e+00 
0.0000000e+00 0.0000000e+00 0.0000000e+00 
0.0000000e+00 0.0000000e+00 0.0000000e+00 
0.0000000e+00 -1.0000000e+00 0.0000000e+00 
0.0000000e+00 0.0000000e+00 0.0000000e+00 
0.0000000e+00 0.0000000e+00 0.0000000e+00 
0.0000000e+00 0.0000000e+00 0.0000000e+00 
0.0000000e+00 0.0000000e+00 0.0000000e+00 
0.0000000e+00 -1.0000000e+00 0.0000000e+00 
0.0000000e+00 0.0000000e+00 0.0000000e+00 
0.0000000e+00 0.0000000e+00 0.0000000e+00 
0.0000000e+00 0.0000000e+00 0.0000000e+00 
0.0000000e+00 0.0000000e+00 0.0000000e+00 
0.0000000e+00 0.0000000e+00 0.0000000e+00 
-9.3105890e-02 9.9565619e-01 -2.1969655e-04 
0.0000000e+00 0.0000000e+00 0.0000000e+00 
0.0000000e+00 0.0000000e+00 0.0000000e+00 
-2.0985317e-01 9.7772974e-01 2.4866303e-03 
0.0000000e+00 0.0000000e+00 0.0000000e+00 
0.0000000e+00 0.0000000e+00 0.0000000e+00 
0.0000000e+00 0.0000000e+00 0.0000000e+00 
0.0000000e+00 0.0000000e+00 0.0000000e+00 
-2.3931536e-01 9.7093898e-01 -2.3706930e-03 
0.0000000e+00 0.0000000e+00 0.0000000e+00 
0.0000000e+00 0.0000000e+00 0.0000000e+00 
0.0000000e+00 0.0000000e+00 0.0000000e+00 
0.0000000e+00 0.0000000e+00 0.0000000e+00 
0.0000000e+00 0.0000000e+00 0.0000000e+00 
0.0000000e+00 -1.0000000e+00 0.0000000e+00 
0.0000000e+00 0.0000000e+00 0.0000000e+00 
0.0000000e+00 -1.0000000e+00 0.0000000e+00 
0.0000000e+00 0.0000000e+00 0.0000000e+00 
0.0000000e+00 0.0000000e+00 0.0000000e+00 
1.1583150e-18 9.9998575e-01 -5.3359107e-03 
1.1574731e-18 9.9998999e-01 -4.4776290e-03 
0.0000000e+00 0.0000000e+00 0.0000000e+00 
0.0000000e+00 0.0000000e+00 0.0000000e+00 
0.0000000e+00 0.0000000e+00 0.0000000e+00 
3.4710306e-18 1.0000000e+00 -4.5098675e-21 
0.0000000e+00 9.9999124e-01 4.1790591e-03 
0.0000000e+00 0.0000000e+00 0.0000000e+00 
0.0000000e+00 0.0000000e+00 0.0000000e+00 
-8.4534481e-02 9.9641973e-01 -1.2978497e-03 
0.0000000e+00 0.0000000e+00 0.0000000e+00 
0.0000000e+00 0.0000000e+00 0.0000000e+00 
1.1577455e-18 1.0000000e+00 3.2133892e-35 
-1.2636226e-01 9.9198097e-01 2.5171749e-03 
0.0000000e+00 -1.0000000e+00 0.0000000e+00 
-4.6308139e-18 9.9999988e-01 4.3750854e-04 
0.0000000e+00 0.0000000e+00 0.0000000e+00 
-1.5525004e-01 9.8786515e-01 4.4530681e-03 
0.0000000e+00 0.0000000e+00 0.0000000e+00 
-1.8025462e-01 9.8361725e-01 -2.3290706e-03 
0.0000000e+00 0.0000000e+00 0.0000000e+00 
0.0000000e+00 0.0000000e+00 0.0000000e+00 
0.0000000e+00 0.0000000e+00 0.0000000e+00 
0.0000000e+00 0.0000000e+00 0.0000000e+00 
0.0000000e+00 0.0000000e+00 0.0000000e+00 
0.0000000e+00 0.0000000e+00 0.0000000e+00 
0.0000000e+00 0.0000000e+00 0.0000000e+00 
-3.4731138e-18 9.9999994e-01 -4.1521422e-04 
0.0000000e+00 0.0000000e+00 0.0000000e+00 
0.0000000e+00 0.0000000e+00 0.0000000e+00 
0.0000000e+00 0.0000000e+00 0.0000000e+00 
0.0000000e+00 0.0000000e+00 0.0000000e+00 
0.0000000e+00 0.0000000e+00 0.0000000e+00 
0.0000000e+00 0.0000000e+00 0.0000000e+00 
0.0000000e+00 0.0000000e+00 0.0000000e+00 
0.0000000e+00 0.0000000e+00 0.0000000e+00 
0.0000000e+00 0.0000000e+00 0.0000000e+00 
0.0000000e+00 0.0000000e+00 0.0000000e+00 
5.5370450e-02 9.9846345e-01 -2.2146471e-03 
0.0000000e+00 0.0000000e+00 0.0000000e+00 
0.0000000e+00 0.0000000e+00 0.0000000e+00 
0.0000000e+00 0.0000000e+00 0.0000000e+00 
0.0000000e+00 0.0000000e+00 0.0000000e+00 
0.0000000e+00 0.0000000e+00 0.0000000e+00 
0.0000000e+00 0.0000000e+00 0.0000000e+00 
0.0000000e+00 0.0000000e+00 0.0000000e+00 
0.0000000e+00 0.0000000e+00 0.0000000e+00 
-2.3154477e-18 1.0000000e+00 2.4038924e-04 
-8.0085568e-02 9.9677926e-01 4.1776909e-03 
-1.2053652e-01 9.9270624e-01 -2.2835268e-03 
0.0000000e+00 0.0000000e+00 0.0000000e+00 
0.0000000e+00 0.0000000e+00 0.0000000e+00 
0.0000000e+00 0.0000000e+00 0.0000000e+00 
0.0000000e+00 0.0000000e+00 0.0000000e+00 
0.0000000e+00 0.0000000e+00 0.0000000e+00 
8.0253981e-02 9.9676597e-01 -4.1155182e-03 
0.0000000e+00 0.0000000e+00 0.0000000e+00 
0.0000000e+00 0.0000000e+00 0.0000000e+00 
9.5769018e-02 9.9540353e-01 3.7939774e-04 
0.0000000e+00 0.0000000e+00 0.0000000e+00 
0.0000000e+00 0.0000000e+00 0.0000000e+00 
0.0000000e+00 0.0000000e+00 0.0000000e+00 
3.4745697e-18 9.9998862e-01 -4.7711339e-03 
0.0000000e+00 0.0000000e+00 0.0000000e+00 
9.3372732e-02 9.9563122e-01 2.4828766e-04 
0.0000000e+00 0.0000000e+00 0.0000000e+00 
0.0000000e+00 0.0000000e+00 0.0000000e+00 
1.1201650e-01 9.9370629e-01 -3.9905318e-04 
1.2053652e-01 9.9270624e-01 2.2835268e-03 
0.0000000e+00 0.0000000e+00 0.0000000e+00 
0.0000000e+00 0.0000000e+00 0.0000000e+00 
9.2053033e-02 9.9575412e-01 2.6464128e-05 
0.0000000e+00 0.0000000e+00 0.0000000e+00 
0.0000000e+00 0.0000000e+00 0.0000000e+00 
0.0000000e+00 0.0000000e+00 0.0000000e+00 
5.7914951e-18 9.9998534e-01 5.4204222e-03 
0.0000000e+00 0.0000000e+00 0.0000000e+00 
-5.5281401e-02 9.9846828e-01 2.2544477e-03 
0.0000000e+00 0.0000000e+00 0.0000000e+00 
0.0000000e+00 0.0000000e+00 0.0000000e+00 
0.0000000e+00 0.0000000e+00 0.0000000e+00 
0.0000000e+00 0.0000000e+00 0.0000000e+00 
0.0000000e+00 0.0000000e+00 0.0000000e+00 
1.5438594e-01 9.8800540e-01 -3.2160517e-03 
9.3105890e-02 9.9565619e-01 -2.1969655e-04 
0.0000000e+00 0.0000000e+00 0.0000000e+00 
0.0000000e+00 0.0000000e+00 0.0000000e+00 
0.0000000e+00 0.0000000e+00 0.0000000e+00 
5.7873439e-18 9.9998981e-01 4.5174295e-03 
0.0000000e+00 0.0000000e+00 0.0000000e+00 
0.0000000e+00 0.0000000e+00 0.0000000e+00 
0.0000000e+00 0.0000000e+00 0.0000000e+00 
0.0000000e+00 0.0000000e+00 0.0000000e+00 
0.0000000e+00 0.0000000e+00 0.0000000e+00 
0.0000000e+00 0.0000000e+00 0.0000000e+00 
0.0000000e+00 0.0000000e+00 0.0000000e+00 
0.0000000e+00 0.0000000e+00 0.0000000e+00 
8.4534481e-02 9.9641973e-01 -1.2978497e-03 
0.0000000e+00 0.0000000e+00 0.0000000e+00 
0.0000000e+00 0.0000000e+00 0.0000000e+00 
1.8025462e-01 9.8361725e-01 2.3290706e-03 
0.0000000e+00 0.0000000e+00 0.0000000e+00 
0.0000000e+00 0.0000000e+00 0.0000000e+00 
0.0000000e+00 0.0000000e+00 0.0000000e+00 
0.0000000e+00 0.0000000e+00 0.0000000e+00 
0.0000000e+00 0.0000000e+00 0.0000000e+00 
1.8322995e-01 9.8306984e-01 -7.2500319e-04 
3.4710306e-18 1.0000000e+00 4.0965864e-19 
0.0000000e+00 0.0000000e+00 0.0000000e+00 
0.0000000e+00 0.0000000e+00 0.0000000e+00 
0.0000000e+00 0.0000000e+00 0.0000000e+00 
0.0000000e+00 0.0000000e+00 0.0000000e+00 
1.8714449e-01 9.8233235e-01 2.1034265e-04 
0.0000000e+00 0.0000000e+00 0.0000000e+00 
0.0000000e+00 0.0000000e+00 0.0000000e+00 
0.0000000e+00 0.0000000e+00 0.0000000e+00 
0.0000000e+00 0.0000000e+00 0.0000000e+00 
2.0983832e-01 9.7773445e-01 -1.7968055e-03 
1.8612729e-01 9.8252547e-01 -5.9607183e-04 
0.0000000e+00 0.0000000e+00 0.0000000e+00 
0.0000000e+00 0.0000000e+00 0.0000000e+00 
0.0000000e+00 0.0000000e+00 0.0000000e+00 
2.2168845e-01 9.7511458e-01 -2.3943523e-03 
0.0000000e+00 0.0000000e+00 0.0000000e+00 
0.0000000e+00 0.0000000e+00 0.0000000e+00 
0.0000000e+00 0.0000000e+00 0.0000000e+00 
0.0000000e+00 0.0000000e+00 0.0000000e+00 
1.8589105e-01 9.8257017e-01 6.3893455e-04 
0.0000000e+00 0.0000000e+00 0.0000000e+00 
0.0000000e+00 0.0000000e+00 0.0000000e+00 
0.0000000e+00 0.0000000e+00 0.0000000e+00 
0.0000000e+00 0.0000000e+00 0.0000000e+00 
0.0000000e+00 0.0000000e+00 0.0000000e+00 
0.0000000e+00 0.0000000e+00 0.0000000e+00 
0.0000000e+00 0.0000000e+00 0.0000000e+00 
1.2622173e-01 9.9199861e-01 2.6012571e-03 
5.5281401e-02 9.9846828e-01 2.2544477e-03 
0.0000000e+00 0.0000000e+00 0.0000000e+00 
2.3931536e-01 9.7093898e-01 2.3706930e-03 
8.0085568e-02 9.9677926e-01 4.1776909e-03 
0.0000000e+00 0.0000000e+00 0.0000000e+00 
0.0000000e+00 0.0000000e+00 0.0000000e+00 
0.0000000e+00 0.0000000e+00 0.0000000e+00 
1.8306208e-01 9.8309618e-01 -3.1872992e-03 
0.0000000e+00 0.0000000e+00 0.0000000e+00 
0.0000000e+00 0.0000000e+00 0.0000000e+00 
0.0000000e+00 0.0000000e+00 0.0000000e+00 
0.0000000e+00 0.0000000e+00 0.0000000e+00 
0.0000000e+00 0.0000000e+00 0.0000000e+00 
0.0000000e+00 0.0000000e+00 0.0000000e+00 
0.0000000e+00 0.0000000e+00 0.0000000e+00 
2.7044579e-01 9.6272123e-01 -5.1834714e-03 
0.0000000e+00 0.0000000e+00 0.0000000e+00 
0.0000000e+00 0.0000000e+00 0.0000000e+00 
0.0000000e+00 0.0000000e+00 0.0000000e+00 
0.0000000e+00 0.0000000e+00 0.0000000e+00 
0.0000000e+00 0.0000000e+00 0.0000000e+00 
0.0000000e+00 0.0000000e+00 0.0000000e+00 
2.8520882e-01 9.5846468e-01 1.1765887e-03 
0.0000000e+00 0.0000000e+00 0.0000000e+00 
0.0000000e+00 0.0000000e+00 0.0000000e+00 
0.0000000e+00 0.0000000e+00 0.0000000e+00 
0.0000000e+00 0.0000000e+00 0.0000000e+00 
0.0000000e+00 0.0000000e+00 0.0000000e+00 
2.8018048e-01 9.5994729e-01 -3.4221882e-04 
0.0000000e+00 0.0000000e+00 0.0000000e+00 
1.2053652e-01 9.9270624e-01 -2.2835268e-03 
0.0000000e+00 0.0000000e+00 0.0000000e+00 
1.5514876e-01 9.8788184e-01 4.2818878e-03 
2.9750359e-01 9.5471764e-01 2.4089194e-03 
0.0000000e+00 0.0000000e+00 0.0000000e+00 
0.0000000e+00 0.0000000e+00 0.0000000e+00 
0.0000000e+00 0.0000000e+00 0.0000000e+00 
0.0000000e+00 0.0000000e+00 0.0000000e+00 
2.8079411e-01 9.5976800e-01 -2.0387436e-06 
0.0000000e+00 0.0000000e+00 0.0000000e+00 
0.0000000e+00 0.0000000e+00 0.0000000e+00 
0.0000000e+00 0.0000000e+00 0.0000000e+00 
0.0000000e+00 0.0000000e+00 0.0000000e+00 
0.0000000e+00 0.0000000e+00 0.0000000e+00 
0.0000000e+00 0.0000000e+00 0.0000000e+00 
0.0000000e+00 0.0000000e+00 0.0000000e+00 
3.2617188e-01 9.4530869e-01 -1.8370175e-03 
2.7947417e-01 9.6015316e-01 3.5954226e-04 
0.0000000e+00 0.0000000e+00 0.0000000e+00 
0.0000000e+00 0.0000000e+00 0.0000000e+00 
0.0000000e+00 0.0000000e+00 0.0000000e+00 
3.3689031e-01 9.4152886e-01 -5.3261830e-03 
0.0000000e+00 0.0000000e+00 0.0000000e+00 
0.0000000e+00 0.0000000e+00 0.0000000e+00 
0.0000000e+00 0.0000000e+00 0.0000000e+00 
0.0000000e+00 0.0000000e+00 0.0000000e+00 
0.0000000e+00 0.0000000e+00 0.0000000e+00 
0.0000000e+00 0.0000000e+00 0.0000000e+00 
2.2355126e-01 9.7465175e-01 8.8763665e-03 
1.8025462e-01 9.8361725e-01 -2.3290706e-03 
0.0000000e+00 0.0000000e+00 0.0000000e+00 
2.0985092e-01 9.7773051e-01 2.3813793e-03 
0.0000000e+00 0.0000000e+00 0.0000000e+00 
0.0000000e+00 0.0000000e+00 0.0000000e+00 
3.5460424e-01 9.3501329e-01 2.4430698e-03 
2.6061991e-01 9.6544147e-01 -8.3431260e-05 
0.0000000e+00 0.0000000e+00 0.0000000e+00 
0.0000000e+00 0.0000000e+00 0.0000000e+00 
0.0000000e+00 0.0000000e+00 0.0000000e+00 
0.0000000e+00 0.0000000e+00 0.0000000e+00 
0.0000000e+00 0.0000000e+00 0.0000000e+00 
0.0000000e+00 0.0000000e+00 0.0000000e+00 
0.0000000e+00 0.0000000e+00 0.0000000e+00 
0.0000000e+00 0.0000000e+00 0.0000000e+00 
0.0000000e+00 0.0000000e+00 0.0000000e+00 
0.0000000e+00 0.0000000e+00 0.0000000e+00 
0.0000000e+00 0.0000000e+00 0.0000000e+00 
3.8575396e-01 9.2258453e-01 -5.6296261e-03 
3.6668032e-01 9.3034410e-01 2.3121827e-03 
0.0000000e+00 0.0000000e+00 0.0000000e+00 
0.0000000e+00 0.0000000e+00 0.0000000e+00 
0.0000000e+00 0.0000000e+00 0.0000000e+00 
3.9241013e-01 9.1978109e-01 -4.1226433e-03 
0.0000000e+00 0.0000000e+00 0.0000000e+00 
0.0000000e+00 0.0000000e+00 0.0000000e+00 
2.3931536e-01 9.7093898e-01 -2.3706930e-03 
0.0000000e+00 0.0000000e+00 0.0000000e+00 
0.0000000e+00 0.0000000e+00 0.0000000e+00 
0.0000000e+00 0.0000000e+00 0.0000000e+00 
0.0000000e+00 0.0000000e+00 0.0000000e+00 
0.0000000e+00 0.0000000e+00 0.0000000e+00 
0.0000000e+00 0.0000000e+00 0.0000000e+00 
2.6977220e-01 9.6291637e-01 3.8696297e-03 
0.0000000e+00 0.0000000e+00 0.0000000e+00 
0.0000000e+00 0.0000000e+00 0.0000000e+00 
0.0000000e+00 0.0000000e+00 0.0000000e+00 
4.1126248e-01 9.1151375e-01 2.4251142e-03 
0.0000000e+00 0.0000000e+00 0.0000000e+00 
4.0714249e-01 9.1336262e-01 1.9201464e-03 
3.8294065e-01 9.2375988e-01 4.9185562e-03 
0.0000000e+00 0.0000000e+00 0.0000000e+00 
0.0000000e+00 0.0000000e+00 0.0000000e+00 
0.0000000e+00 0.0000000e+00 0.0000000e+00 
0.0000000e+00 0.0000000e+00 0.0000000e+00 
0.0000000e+00 0.0000000e+00 0.0000000e+00 
0.0000000e+00 0.0000000e+00 0.0000000e+00 
0.0000000e+00 0.0000000e+00 0.0000000e+00 
3.8364124e-01 9.2347747e-01 -2.9520192e-03 
3.3347329e-01 9.4274861e-01 4.5474493e-03 
0.0000000e+00 0.0000000e+00 0.0000000e+00 
4.3909922e-01 8.9843655e-01 -1.9173196e-03 
0.0000000e+00 0.0000000e+00 0.0000000e+00 
0.0000000e+00 0.0000000e+00 0.0000000e+00 
4.5027998e-01 8.9287627e-01 -4.4574277e-03 
0.0000000e+00 0.0000000e+00 0.0000000e+00 
0.0000000e+00 0.0000000e+00 0.0000000e+00 
2.9750359e-01 9.5471764e-01 -2.4089194e-03 
0.0000000e+00 0.0000000e+00 0.0000000e+00 
0.0000000e+00 0.0000000e+00 0.0000000e+00 
0.0000000e+00 0.0000000e+00 0.0000000e+00 
3.2616687e-01 9.4531095e-01 1.5458665e-03 
0.0000000e+00 0.0000000e+00 0.0000000e+00 
0.0000000e+00 0.0000000e+00 0.0000000e+00 
0.0000000e+00 0.0000000e+00 0.0000000e+00 
4.6482536e-01 8.8539743e-01 2.9658591e-03 
0.0000000e+00 0.0000000e+00 0.0000000e+00 
0.0000000e+00 0.0000000e+00 0.0000000e+00 
0.0000000e+00 0.0000000e+00 0.0000000e+00 
0.0000000e+00 0.0000000e+00 0.0000000e+00 
4.6411133e-01 8.8576907e-01 -3.7190190e-03 
0.0000000e+00 0.0000000e+00 0.0000000e+00 
0.0000000e+00 0.0000000e+00 0.0000000e+00 
0.0000000e+00 0.0000000e+00 0.0000000e+00 
0.0000000e+00 0.0000000e+00 0.0000000e+00 
0.0000000e+00 0.0000000e+00 0.0000000e+00 
0.0000000e+00 0.0000000e+00 0.0000000e+00 
0.0000000e+00 0.0000000e+00 0.0000000e+00 
4.9486038e-01 8.6895329e-01 -5.7755001e-03 
0.0000000e+00 0.0000000e+00 0.0000000e+00 
0.0000000e+00 0.0000000e+00 0.0000000e+00 
0.0000000e+00 0.0000000e+00 0.0000000e+00 
0.0000000e+00 0.0000000e+00 0.0000000e+00 
0.0000000e+00 0.0000000e+00 0.0000000e+00 
0.0000000e+00 0.0000000e+00 0.0000000e+00 
3.5460424e-01 9.3501329e-01 -2.4430698e-03 
0.0000000e+00 0.0000000e+00 0.0000000e+00 
0.0000000e+00 0.0000000e+00 0.0000000e+00 
0.0000000e+00 0.0000000e+00 0.0000000e+00 
3.8682994e-01 9.2211688e-01 7.9411548e-03 
0.0000000e+00 0.0000000e+00 0.0000000e+00 
0.0000000e+00 0.0000000e+00 0.0000000e+00 
4.6732381e-01 8.8408369e-01 -2.1214890e-03 
0.0000000e+00 0.0000000e+00 0.0000000e+00 
0.0000000e+00 0.0000000e+00 0.0000000e+00 
5.1819235e-01 8.5526067e-01 2.4196026e-03 
0.0000000e+00 0.0000000e+00 0.0000000e+00 
5.1618212e-01 8.5647875e-01 3.8378205e-04 
0.0000000e+00 0.0000000e+00 0.0000000e+00 
0.0000000e+00 0.0000000e+00 0.0000000e+00 
0.0000000e+00 0.0000000e+00 0.0000000e+00 
0.0000000e+00 0.0000000e+00 0.0000000e+00 
0.0000000e+00 0.0000000e+00 0.0000000e+00 
0.0000000e+00 0.0000000e+00 0.0000000e+00 
0.0000000e+00 0.0000000e+00 0.0000000e+00 
5.1878077e-01 8.5488957e-01 -5.5091525e-03 
0.0000000e+00 0.0000000e+00 0.0000000e+00 
0.0000000e+00 0.0000000e+00 0.0000000e+00 
0.0000000e+00 0.0000000e+00 0.0000000e+00 
0.0000000e+00 0.0000000e+00 0.0000000e+00 
0.0000000e+00 0.0000000e+00 0.0000000e+00 
5.4436874e-01 8.3884352e-01 -2.0611368e-03 
0.0000000e+00 0.0000000e+00 0.0000000e+00 
0.0000000e+00 0.0000000e+00 0.0000000e+00 
0.0000000e+00 0.0000000e+00 0.0000000e+00 
0.0000000e+00 0.0000000e+00 0.0000000e+00 
0.0000000e+00 0.0000000e+00 0.0000000e+00 
5.0016844e-01 8.6591208e-01 5.2660415e-03 
0.0000000e+00 0.0000000e+00 0.0000000e+00 
4.1164148e-01 9.1134363e-01 -2.0261386e-03 
0.0000000e+00 0.0000000e+00 0.0000000e+00 
0.0000000e+00 0.0000000e+00 0.0000000e+00 
5.5720538e-01 8.3036166e-01 -4.6545216e-03 
0.0000000e+00 0.0000000e+00 0.0000000e+00 
4.5296434e-01 8.9149988e-01 7.1601728e-03 
0.0000000e+00 0.0000000e+00 0.0000000e+00 
0.0000000e+00 0.0000000e+00 0.0000000e+00 
0.0000000e+00 0.0000000e+00 0.0000000e+00 
0.0000000e+00 0.0000000e+00 0.0000000e+00 
0.0000000e+00 0.0000000e+00 0.0000000e+00 
0.0000000e+00 0.0000000e+00 0.0000000e+00 
4.4189173e-01 8.9706278e-01 3.1726686e-03 
0.0000000e+00 0.0000000e+00 0.0000000e+00 
5.6822717e-01 8.2286614e-01 3.0341109e-03 
0.0000000e+00 0.0000000e+00 0.0000000e+00 
0.0000000e+00 0.0000000e+00 0.0000000e+00 
5.6709564e-01 8.2365197e-01 4.7873193e-05 
0.0000000e+00 0.0000000e+00 0.0000000e+00 
0.0000000e+00 0.0000000e+00 0.0000000e+00 
0.0000000e+00 0.0000000e+00 0.0000000e+00 
0.0000000e+00 0.0000000e+00 0.0000000e+00 
0.0000000e+00 0.0000000e+00 0.0000000e+00 
5.1041400e-01 8.5992557e-01 -2.3524759e-03 
0.0000000e+00 0.0000000e+00 0.0000000e+00 
0.0000000e+00 0.0000000e+00 0.0000000e+00 
5.9780222e-01 8.0160534e-01 -7.8316191e-03 
0.0000000e+00 0.0000000e+00 0.0000000e+00 
0.0000000e+00 0.0000000e+00 0.0000000e+00 
0.0000000e+00 0.0000000e+00 0.0000000e+00 
0.0000000e+00 0.0000000e+00 0.0000000e+00 
4.6652803e-01 8.8450390e-01 -2.1013529e-03 
0.0000000e+00 0.0000000e+00 0.0000000e+00 
0.0000000e+00 0.0000000e+00 0.0000000e+00 
0.0000000e+00 0.0000000e+00 0.0000000e+00 
0.0000000e+00 0.0000000e+00 0.0000000e+00 
0.0000000e+00 0.0000000e+00 0.0000000e+00 
4.9911675e-01 8.6652595e-01 3.8996653e-03 
0.0000000e+00 0.0000000e+00 0.0000000e+00 
0.0000000e+00 0.0000000e+00 0.0000000e+00 
5.6883425e-01 8.2245219e-01 1.8248196e-04 
6.1783606e-01 7.8630334e-01 2.3757643e-03 
6.1620808e-01 7.8758276e-01 9.8708528e-04 
0.0000000e+00 0.0000000e+00 0.0000000e+00 
0.0000000e+00 0.0000000e+00 0.0000000e+00 
0.0000000e+00 0.0000000e+00 0.0000000e+00 
0.0000000e+00 0.0000000e+00 0.0000000e+00 
0.0000000e+00 0.0000000e+00 0.0000000e+00 
0.0000000e+00 0.0000000e+00 0.0000000e+00 
0.0000000e+00 0.0000000e+00 0.0000000e+00 
6.1396140e-01 7.8932804e-01 -3.5458468e-03 
0.0000000e+00 0.0000000e+00 0.0000000e+00 
0.0000000e+00 0.0000000e+00 0.0000000e+00 
0.0000000e+00 0.0000000e+00 0.0000000e+00 
0.0000000e+00 0.0000000e+00 0.0000000e+00 
0.0000000e+00 0.0000000e+00 0.0000000e+00 
6.4144313e-01 7.6716310e-01 -3.3857517e-03 
0.0000000e+00 0.0000000e+00 0.0000000e+00 
6.1662990e-01 7.8724879e-01 2.6404290e-03 
0.0000000e+00 0.0000000e+00 0.0000000e+00 
5.5739725e-01 8.3023745e-01 3.7546821e-03 
5.1948297e-01 8.5447526e-01 -3.0887842e-03 
0.0000000e+00 0.0000000e+00 0.0000000e+00 
0.0000000e+00 0.0000000e+00 0.0000000e+00 
0.0000000e+00 0.0000000e+00 0.0000000e+00 
0.0000000e+00 0.0000000e+00 0.0000000e+00 
0.0000000e+00 0.0000000e+00 0.0000000e+00 
0.0000000e+00 0.0000000e+00 0.0000000e+00 
0.0000000e+00 0.0000000e+00 0.0000000e+00 
0.0000000e+00 0.0000000e+00 0.0000000e+00 
0.0000000e+00 0.0000000e+00 0.0000000e+00 
0.0000000e+00 0.0000000e+00 0.0000000e+00 
0.0000000e+00 0.0000000e+00 0.0000000e+00 
5.4583699e-01 8.3789057e-01 1.1769574e-03 
6.6339552e-01 7.4823868e-01 -6.7266054e-03 
6.6282147e-01 7.4876761e-01 3.8424055e-03 
0.0000000e+00 0.0000000e+00 0.0000000e+00 
0.0000000e+00 0.0000000e+00 0.0000000e+00 
6.6301990e-01 7.4860179e-01 -8.1575427e-06 
0.0000000e+00 0.0000000e+00 0.0000000e+00 
0.0000000e+00 0.0000000e+00 0.0000000e+00 
0.0000000e+00 0.0000000e+00 0.0000000e+00 
6.8400216e-01 7.2947180e-01 -3.4436001e-03 
0.0000000e+00 0.0000000e+00 0.0000000e+00 
6.1542505e-01 7.8819501e-01 -7.9976732e-04 
0.0000000e+00 0.0000000e+00 0.0000000e+00 
0.0000000e+00 0.0000000e+00 0.0000000e+00 
0.0000000e+00 0.0000000e+00 0.0000000e+00 
0.0000000e+00 0.0000000e+00 0.0000000e+00 
0.0000000e+00 0.0000000e+00 0.0000000e+00 
0.0000000e+00 0.0000000e+00 0.0000000e+00 
0.0000000e+00 0.0000000e+00 0.0000000e+00 
0.0000000e+00 0.0000000e+00 0.0000000e+00 
5.6818426e-01 8.2289588e-01 -2.9971271e-03 
0.0000000e+00 0.0000000e+00 0.0000000e+00 
0.0000000e+00 0.0000000e+00 0.0000000e+00 
0.0000000e+00 0.0000000e+00 0.0000000e+00 
5.9590656e-01 8.0303377e-01 5.6656823e-03 
0.0000000e+00 0.0000000e+00 0.0000000e+00 
0.0000000e+00 0.0000000e+00 0.0000000e+00 
6.6298461e-01 7.4863303e-01 2.8838913e-05 
0.0000000e+00 0.0000000e+00 0.0000000e+00 
0.0000000e+00 0.0000000e+00 0.0000000e+00 
0.0000000e+00 0.0000000e+00 0.0000000e+00 
0.0000000e+00 0.0000000e+00 0.0000000e+00 
7.0616144e-01 7.0804781e-01 2.0779090e-03 
0.0000000e+00 0.0000000e+00 0.0000000e+00 
7.0840335e-01 7.0580733e-01 8.3316216e-04 
0.0000000e+00 0.0000000e+00 0.0000000e+00 
0.0000000e+00 0.0000000e+00 0.0000000e+00 
0.0000000e+00 0.0000000e+00 0.0000000e+00 
0.0000000e+00 0.0000000e+00 0.0000000e+00 
0.0000000e+00 0.0000000e+00 0.0000000e+00 
6.9858319e-01 7.1552497e-01 -2.3624236e-03 
0.0000000e+00 0.0000000e+00 0.0000000e+00 
0.0000000e+00 0.0000000e+00 0.0000000e+00 
7.2390115e-01 6.8986207e-01 -7.5779231e-03 
0.0000000e+00 0.0000000e+00 0.0000000e+00 
0.0000000e+00 0.0000000e+00 0.0000000e+00 
0.0000000e+00 0.0000000e+00 0.0000000e+00 
0.0000000e+00 0.0000000e+00 0.0000000e+00 
0.0000000e+00 0.0000000e+00 0.0000000e+00 
0.0000000e+00 0.0000000e+00 0.0000000e+00 
6.1747408e-01 7.8658748e-01 -2.4305026e-03 
6.5280652e-01 7.5751126e-01 4.5030829e-03 
7.1552497e-01 6.9858319e-01 2.3624236e-03 
0.0000000e+00 0.0000000e+00 0.0000000e+00 
0.0000000e+00 0.0000000e+00 0.0000000e+00 
0.0000000e+00 0.0000000e+00 0.0000000e+00 
0.0000000e+00 0.0000000e+00 0.0000000e+00 
0.0000000e+00 0.0000000e+00 0.0000000e+00 
0.0000000e+00 0.0000000e+00 0.0000000e+00 
6.4147347e-01 7.6714247e-01 2.0505565e-03 
7.4836522e-01 6.6327995e-01 3.0342296e-03 
0.0000000e+00 0.0000000e+00 0.0000000e+00 
0.0000000e+00 0.0000000e+00 0.0000000e+00 
0.0000000e+00 0.0000000e+00 0.0000000e+00 
7.5751126e-01 6.5280652e-01 -4.5030839e-03 
7.4863303e-01 6.6298461e-01 -2.8837885e-05 
0.0000000e+00 0.0000000e+00 0.0000000e+00 
0.0000000e+00 0.0000000e+00 0.0000000e+00 
0.0000000e+00 0.0000000e+00 0.0000000e+00 
7.0580733e-01 7.0840335e-01 -8.3316199e-04 
7.6714247e-01 6.4147347e-01 -2.0505565e-03 
0.0000000e+00 0.0000000e+00 0.0000000e+00 
0.0000000e+00 0.0000000e+00 0.0000000e+00 
0.0000000e+00 0.0000000e+00 0.0000000e+00 
0.0000000e+00 0.0000000e+00 0.0000000e+00 
0.0000000e+00 0.0000000e+00 0.0000000e+00 
0.0000000e+00 0.0000000e+00 0.0000000e+00 
0.0000000e+00 0.0000000e+00 0.0000000e+00 
0.0000000e+00 0.0000000e+00 0.0000000e+00 
0.0000000e+00 0.0000000e+00 0.0000000e+00 
0.0000000e+00 0.0000000e+00 0.0000000e+00 
0.0000000e+00 0.0000000e+00 0.0000000e+00 
0.0000000e+00 0.0000000e+00 0.0000000e+00 
0.0000000e+00 0.0000000e+00 0.0000000e+00 
6.6327995e-01 7.4836522e-01 -3.0342296e-03 
0.0000000e+00 0.0000000e+00 0.0000000e+00 
0.0000000e+00 0.0000000e+00 0.0000000e+00 
0.0000000e+00 0.0000000e+00 0.0000000e+00 
6.8986207e-01 7.2390115e-01 7.5779231e-03 
0.0000000e+00 0.0000000e+00 0.0000000e+00 
0.0000000e+00 0.0000000e+00 0.0000000e+00 
0.0000000e+00 0.0000000e+00 0.0000000e+00 
7.4860179e-01 6.6301990e-01 8.1585504e-06 
7.8819501e-01 6.1542505e-01 7.9976738e-04 
7.8658748e-01 6.1747408e-01 2.4305026e-03 
0.0000000e+00 0.0000000e+00 0.0000000e+00 
0.0000000e+00 0.0000000e+00 0.0000000e+00 
0.0000000e+00 0.0000000e+00 0.0000000e+00 
0.0000000e+00 0.0000000e+00 0.0000000e+00 
0.0000000e+00 0.0000000e+00 0.0000000e+00 
0.0000000e+00 0.0000000e+00 0.0000000e+00 
7.8058422e-01 6.2504441e-01 -2.7909456e-03 
0.0000000e+00 0.0000000e+00 0.0000000e+00 
8.0303377e-01 5.9590656e-01 -5.6656823e-03 
0.0000000e+00 0.0000000e+00 0.0000000e+00 
0.0000000e+00 0.0000000e+00 0.0000000e+00 
0.0000000e+00 0.0000000e+00 0.0000000e+00 
0.0000000e+00 0.0000000e+00 0.0000000e+00 
0.0000000e+00 0.0000000e+00 0.0000000e+00 
0.0000000e+00 0.0000000e+00 0.0000000e+00 
0.0000000e+00 0.0000000e+00 0.0000000e+00 
0.0000000e+00 0.0000000e+00 0.0000000e+00 
0.0000000e+00 0.0000000e+00 0.0000000e+00 
7.9503685e-01 6.0655564e-01 2.5773833e-03 
7.0804781e-01 7.0616144e-01 -2.0779090e-03 
0.0000000e+00 0.0000000e+00 0.0000000e+00 
0.0000000e+00 0.0000000e+00 0.0000000e+00 
0.0000000e+00 0.0000000e+00 0.0000000e+00 
0.0000000e+00 0.0000000e+00 0.0000000e+00 
0.0000000e+00 0.0000000e+00 0.0000000e+00 
0.0000000e+00 0.0000000e+00 0.0000000e+00 
8.2289588e-01 5.6818426e-01 2.9971271e-03 
0.0000000e+00 0.0000000e+00 0.0000000e+00 
0.0000000e+00 0.0000000e+00 0.0000000e+00 
7.4823868e-01 6.6339552e-01 6.7266049e-03 
0.0000000e+00 0.0000000e+00 0.0000000e+00 
7.2947180e-01 6.8400216e-01 3.4436001e-03 
8.2245219e-01 5.6883425e-01 -1.8248196e-04 
8.3162677e-01 5.5531913e-01 -4.1872845e-03 
0.0000000e+00 0.0000000e+00 0.0000000e+00 
0.0000000e+00 0.0000000e+00 0.0000000e+00 
0.0000000e+00 0.0000000e+00 0.0000000e+00 
0.0000000e+00 0.0000000e+00 0.0000000e+00 
8.3895540e-01 5.4419672e-01 -1.9403682e-03 
0.0000000e+00 0.0000000e+00 0.0000000e+00 
7.8758276e-01 6.1620808e-01 -9.8708516e-04 
0.0000000e+00 0.0000000e+00 0.0000000e+00 
0.0000000e+00 0.0000000e+00 0.0000000e+00 
0.0000000e+00 0.0000000e+00 0.0000000e+00 
0.0000000e+00 0.0000000e+00 0.0000000e+00 
0.0000000e+00 0.0000000e+00 0.0000000e+00 
0.0000000e+00 0.0000000e+00 0.0000000e+00 
0.0000000e+00 0.0000000e+00 0.0000000e+00 
0.0000000e+00 0.0000000e+00 0.0000000e+00 
0.0000000e+00 0.0000000e+00 0.0000000e+00 
0.0000000e+00 0.0000000e+00 0.0000000e+00 
0.0000000e+00 0.0000000e+00 0.0000000e+00 
0.0000000e+00 0.0000000e+00 0.0000000e+00 
0.0000000e+00 0.0000000e+00 0.0000000e+00 
7.4876761e-01 6.6282147e-01 -3.8424055e-03 
0.0000000e+00 0.0000000e+00 0.0000000e+00 
0.0000000e+00 0.0000000e+00 0.0000000e+00 
0.0000000e+00 0.0000000e+00 0.0000000e+00 
0.0000000e+00 0.0000000e+00 0.0000000e+00 
0.0000000e+00 0.0000000e+00 0.0000000e+00 
0.0000000e+00 0.0000000e+00 0.0000000e+00 
7.6716310e-01 6.4144313e-01 3.3857517e-03 
0.0000000e+00 0.0000000e+00 0.0000000e+00 
8.5406184e-01 5.2017146e-01 1.8429291e-04 
0.0000000e+00 0.0000000e+00 0.0000000e+00 
8.5530412e-01 5.1812053e-01 2.4508801e-03 
8.2365197e-01 5.6709564e-01 -4.7873193e-05 
0.0000000e+00 0.0000000e+00 0.0000000e+00 
0.0000000e+00 0.0000000e+00 0.0000000e+00 
0.0000000e+00 0.0000000e+00 0.0000000e+00 
0.0000000e+00 0.0000000e+00 0.0000000e+00 
0.0000000e+00 0.0000000e+00 0.0000000e+00 
0.0000000e+00 0.0000000e+00 0.0000000e+00 
0.0000000e+00 0.0000000e+00 0.0000000e+00 
8.5389316e-01 5.2043086e-01 -4.2673922e-03 
0.0000000e+00 0.0000000e+00 0.0000000e+00 
0.0000000e+00 0.0000000e+00 0.0000000e+00 
8.6892873e-01 4.9491060e-01 -5.1350696e-03 
0.0000000e+00 0.0000000e+00 0.0000000e+00 
0.0000000e+00 0.0000000e+00 0.0000000e+00 
0.0000000e+00 0.0000000e+00 0.0000000e+00 
0.0000000e+00 0.0000000e+00 0.0000000e+00 
0.0000000e+00 0.0000000e+00 0.0000000e+00 
0.0000000e+00 0.0000000e+00 0.0000000e+00 
0.0000000e+00 0.0000000e+00 0.0000000e+00 
8.6715114e-01 4.9801901e-01 5.0991015e-03 
0.0000000e+00 0.0000000e+00 0.0000000e+00 
0.0000000e+00 0.0000000e+00 0.0000000e+00 
7.8630334e-01 6.1783606e-01 -2.3757643e-03 
0.0000000e+00 0.0000000e+00 0.0000000e+00 
0.0000000e+00 0.0000000e+00 0.0000000e+00 
8.8534802e-01 4.6491915e-01 3.0045230e-03 
8.0160534e-01 5.9780222e-01 7.8316191e-03 
0.0000000e+00 0.0000000e+00 0.0000000e+00 
0.0000000e+00 0.0000000e+00 0.0000000e+00 
8.8389343e-01 4.6766111e-01 -5.0441297e-03 
8.9156139e-01 4.5288202e-01 -4.0237308e-03 
0.0000000e+00 0.0000000e+00 0.0000000e+00 
0.0000000e+00 0.0000000e+00 0.0000000e+00 
0.0000000e+00 0.0000000e+00 0.0000000e+00 
0.0000000e+00 0.0000000e+00 0.0000000e+00 
0.0000000e+00 0.0000000e+00 0.0000000e+00 
8.3036166e-01 5.5720538e-01 4.6545216e-03 
0.0000000e+00 0.0000000e+00 0.0000000e+00 
0.0000000e+00 0.0000000e+00 0.0000000e+00 
0.0000000e+00 0.0000000e+00 0.0000000e+00 
0.0000000e+00 0.0000000e+00 0.0000000e+00 
0.0000000e+00 0.0000000e+00 0.0000000e+00 
8.9830613e-01 4.3936512e-01 -2.1046163e-03 
0.0000000e+00 0.0000000e+00 0.0000000e+00 
8.5647875e-01 5.1618212e-01 -3.8378205e-04 
0.0000000e+00 0.0000000e+00 0.0000000e+00 
0.0000000e+00 0.0000000e+00 0.0000000e+00 
0.0000000e+00 0.0000000e+00 0.0000000e+00 
0.0000000e+00 0.0000000e+00 0.0000000e+00 
0.0000000e+00 0.0000000e+00 0.0000000e+00 
0.0000000e+00 0.0000000e+00 0.0000000e+00 
9.0997386e-01 4.1465777e-01 2.5593638e-03 
0.0000000e+00 0.0000000e+00 0.0000000e+00 
0.0000000e+00 0.0000000e+00 0.0000000e+00 
0.0000000e+00 0.0000000e+00 0.0000000e+00 
0.0000000e+00 0.0000000e+00 0.0000000e+00 
0.0000000e+00 0.0000000e+00 0.0000000e+00 
0.0000000e+00 0.0000000e+00 0.0000000e+00 
0.0000000e+00 0.0000000e+00 0.0000000e+00 
8.2286614e-01 5.6822717e-01 -3.0341109e-03 
0.0000000e+00 0.0000000e+00 0.0000000e+00 
0.0000000e+00 0.0000000e+00 0.0000000e+00 
9.1147143e-01 4.1135660e-01 2.3605369e-03 
0.0000000e+00 0.0000000e+00 0.0000000e+00 
8.3884352e-01 5.4436874e-01 2.0611368e-03 
0.0000000e+00 0.0000000e+00 0.0000000e+00 
8.8630259e-01 4.6308684e-01 4.2749769e-03 
0.0000000e+00 0.0000000e+00 0.0000000e+00 
0.0000000e+00 0.0000000e+00 0.0000000e+00 
0.0000000e+00 0.0000000e+00 0.0000000e+00 
0.0000000e+00 0.0000000e+00 0.0000000e+00 
0.0000000e+00 0.0000000e+00 0.0000000e+00 
0.0000000e+00 0.0000000e+00 0.0000000e+00 
0.0000000e+00 0.0000000e+00 0.0000000e+00 
0.0000000e+00 0.0000000e+00 0.0000000e+00 
0.0000000e+00 -1.0000000e+00 0.0000000e+00 
9.2216527e-01 3.8675350e-01 -5.7434915e-03 
0.0000000e+00 -1.0000000e+00 0.0000000e+00 
0.0000000e+00 -1.0000000e+00 0.0000000e+00 
0.0000000e+00 -1.0000000e+00 0.0000000e+00 
0.0000000e+00 0.0000000e+00 0.0000000e+00 
0.0000000e+00 0.0000000e+00 0.0000000e+00 
0.0000000e+00 -1.0000000e+00 0.0000000e+00 
0.0000000e+00 0.0000000e+00 0.0000000e+00 
0.0000000e+00 0.0000000e+00 0.0000000e+00 
9.2942625e-01 3.6896804e-01 5.4250546e-03 
0.0000000e+00 0.0000000e+00 0.0000000e+00 
0.0000000e+00 0.0000000e+00 0.0000000e+00 
0.0000000e+00 0.0000000e+00 0.0000000e+00 
0.0000000e+00 0.0000000e+00 0.0000000e+00 
0.0000000e+00 -1.0000000e+00 0.0000000e+00 
9.3496430e-01 3.5473007e-01 2.8875137e-03 
0.0000000e+00 0.0000000e+00 0.0000000e+00 
0.0000000e+00 0.0000000e+00 0.0000000e+00 
9.1959167e-01 3.9285883e-01 -3.6169551e-03 
0.0000000e+00 0.0000000e+00 0.0000000e+00 
8.5526067e-01 5.1819235e-01 -2.4196019e-03 
0.0000000e+00 0.0000000e+00 0.0000000e+00 
0.0000000e+00 0.0000000e+00 0.0000000e+00 
9.4018477e-01 3.4059429e-01 -6.9387769e-03 
8.6895329e-01 4.9486038e-01 5.7755015e-03 
0.0000000e+00 0.0000000e+00 0.0000000e+00 
0.0000000e+00 -1.0000000e+00 0.0000000e+00 
0.0000000e+00 0.0000000e+00 0.0000000e+00 
0.0000000e+00 0.0000000e+00 0.0000000e+00 
9.4482124e-01 3.2758096e-01 -1.8797090e-03 
9.2406517e-01 3.8220698e-01 4.6199197e-03 
0.0000000e+00 0.0000000e+00 0.0000000e+00 
8.9289618e-01 4.5023972e-01 4.5438255e-03 
0.0000000e+00 0.0000000e+00 0.0000000e+00 
0.0000000e+00 0.0000000e+00 0.0000000e+00 
0.0000000e+00 0.0000000e+00 0.0000000e+00 
9.1364819e-01 4.0649998e-01 -2.1831815e-03 
0.0000000e+00 0.0000000e+00 0.0000000e+00 
0.0000000e+00 0.0000000e+00 0.0000000e+00 
0.0000000e+00 0.0000000e+00 0.0000000e+00 
0.0000000e+00 -1.0000000e+00 0.0000000e+00 
0.0000000e+00 -1.0000000e+00 0.0000000e+00 
0.0000000e+00 0.0000000e+00 0.0000000e+00 
9.3062824e-01 3.6595318e-01 -3.0564584e-03 
0.0000000e+00 0.0000000e+00 0.0000000e+00 
0.0000000e+00 0.0000000e+00 0.0000000e+00 
9.5444596e-01 2.9837456e-01 2.3527017e-03 
0.0000000e+00 0.0000000e+00 0.0000000e+00 
0.0000000e+00 0.0000000e+00 0.0000000e+00 
0.0000000e+00 0.0000000e+00 0.0000000e+00 
8.8539743e-01 4.6482536e-01 -2.9658559e-03 
0.0000000e+00 -1.0000000e+00 0.0000000e+00 
0.0000000e+00 0.0000000e+00 0.0000000e+00 
0.0000000e+00 0.0000000e+00 0.0000000e+00 
0.0000000e+00 0.0000000e+00 0.0000000e+00 
0.0000000e+00 -1.0000000e+00 0.0000000e+00 
8.9843655e-01 4.3909922e-01 1.9173211e-03 
9.5750844e-01 2.8839412e-01 2.5421442e-03 
0.0000000e+00 0.0000000e+00 0.0000000e+00 
9.6239865e-01 2.7158529e-01 -5.5035758e-03 
0.0000000e+00 0.0000000e+00 0.0000000e+00 
0.0000000e+00 0.0000000e+00 0.0000000e+00 
0.0000000e+00 0.0000000e+00 0.0000000e+00 
9.5994729e-01 2.8018048e-01 -3.4221911e-04 
0.0000000e+00 0.0000000e+00 0.0000000e+00 
0.0000000e+00 0.0000000e+00 0.0000000e+00 
0.0000000e+00 0.0000000e+00 0.0000000e+00 
0.0000000e+00 -1.0000000e+00 0.0000000e+00 
0.0000000e+00 0.0000000e+00 0.0000000e+00 
0.0000000e+00 0.0000000e+00 0.0000000e+00 
9.5976800e-01 2.8079411e-01 -2.0387458e-06 
9.7093898e-01 2.3931536e-01 2.3706926e-03 
0.0000000e+00 0.0000000e+00 0.0000000e+00 
0.0000000e+00 0.0000000e+00 0.0000000e+00 
9.7496766e-01 2.2233337e-01 -2.4268255e-03 
9.1151375e-01 4.1126248e-01 -2.4251146e-03 
0.0000000e+00 -1.0000000e+00 0.0000000e+00 
0.0000000e+00 -1.0000000e+00 0.0000000e+00 
0.0000000e+00 -1.0000000e+00 0.0000000e+00 
9.2261744e-01 3.8567406e-01 5.7069301e-03 
0.0000000e+00 0.0000000e+00 0.0000000e+00 
9.7773427e-01 2.0983902e-01 -1.8291861e-03 
0.0000000e+00 0.0000000e+00 0.0000000e+00 
9.6015316e-01 2.7947417e-01 3.5954206e-04 
0.0000000e+00 0.0000000e+00 0.0000000e+00 
0.0000000e+00 0.0000000e+00 0.0000000e+00 
0.0000000e+00 0.0000000e+00 0.0000000e+00 
0.0000000e+00 0.0000000e+00 0.0000000e+00 
9.4146156e-01 3.3706957e-01 5.8515789e-03 
0.0000000e+00 0.0000000e+00 0.0000000e+00 
0.0000000e+00 -1.0000000e+00 0.0000000e+00 
9.8306209e-01 1.8327142e-01 -6.8382261e-04 
0.0000000e+00 -1.0000000e+00 0.0000000e+00 
9.8361725e-01 1.8025462e-01 2.3290694e-03 
9.8233235e-01 1.8714449e-01 2.1034245e-04 
9.6089435e-01 2.7690333e-01 -2.5672168e-03 
0.0000000e+00 -1.0000000e+00 0.0000000e+00 
0.0000000e+00 0.0000000e+00 0.0000000e+00 
0.0000000e+00 -1.0000000e+00 0.0000000e+00 
0.0000000e+00 0.0000000e+00 0.0000000e+00 
9.8252547e-01 1.8612729e-01 -5.9607154e-04 
9.8799843e-01 1.5442930e-01 -3.2749125e-03 
9.3501329e-01 3.5460424e-01 -2.4430756e-03 
9.4530869e-01 3.2617188e-01 1.8343502e-03 
0.0000000e+00 -1.0000000e+00 0.0000000e+00 
0.0000000e+00 0.0000000e+00 0.0000000e+00 
0.0000000e+00 0.0000000e+00 0.0000000e+00 
9.8257017e-01 1.8589105e-01 6.3893420e-04 
0.0000000e+00 0.0000000e+00 0.0000000e+00 
9.9369860e-01 1.1208475e-01 -3.7729487e-04 
9.9270624e-01 1.2053652e-01 2.2835266e-03 
0.0000000e+00 -1.0000000e+00 0.0000000e+00 
0.0000000e+00 -1.0000000e+00 0.0000000e+00 
0.0000000e+00 -1.0000000e+00 0.0000000e+00 
9.8309618e-01 1.8306208e-01 -3.1872995e-03 
0.0000000e+00 -1.0000000e+00 0.0000000e+00 
9.9676597e-01 8.0253981e-02 -4.1155182e-03 
9.9540353e-01 9.5769018e-02 3.7939765e-04 
0.0000000e+00 -1.0000000e+00 0.0000000e+00 
9.5471764e-01 2.9750359e-01 -2.4089208e-03 
0.0000000e+00 0.0000000e+00 0.0000000e+00 
9.6272147e-01 2.7045125e-01 4.8513641e-03 
9.9563122e-01 9.3372732e-02 2.4828778e-04 
0.0000000e+00 0.0000000e+00 0.0000000e+00 
0.0000000e+00 -1.0000000e+00 0.0000000e+00 
9.9846345e-01 5.5370450e-02 -2.2146471e-03 
9.7435385e-01 2.2483067e-01 9.2576835e-03 
9.9575412e-01 9.2053033e-02 2.6464128e-05 
9.9565619e-01 9.3105890e-02 -2.1969667e-04 
0.0000000e+00 0.0000000e+00 0.0000000e+00 
9.9845749e-01 5.5265207e-02 -5.3277556e-03 
9.9917930e-01 4.0257908e-02 -4.4739991e-03 
9.9954379e-01 3.0203030e-02 0.0000000e+00 
9.9854457e-01 5.3770620e-02 4.1730134e-03 
9.7772974e-01 2.0985317e-01 2.4866308e-03 
9.7093898e-01 2.3931536e-01 -2.3706926e-03 
9.9890900e-01 4.6699576e-02 2.9958532e-18 
0.0000000e+00 -1.0000000e+00 0.0000000e+00 
9.9641973e-01 8.4534481e-02 -1.2978497e-03 
0.0000000e+00 0.0000000e+00 0.0000000e+00 
9.9894547e-01 4.5909934e-02 4.3704725e-04 
9.9198097e-01 1.2636226e-01 2.5171749e-03 
9.9894446e-01 4.5932334e-02 -4.1477598e-04 
0.0000000e+00 -1.0000000e+00 0.0000000e+00 
9.8786515e-01 1.5525004e-01 4.4530686e-03 
9.8361725e-01 1.8025462e-01 -2.3290694e-03 
9.9892765e-01 4.6297509e-02 2.4013149e-04 
9.9677926e-01 8.0085568e-02 4.1776909e-03 
9.9270624e-01 1.2053652e-01 -2.2835266e-03 
9.9855649e-01 5.3500120e-02 -4.7643008e-03 
0.0000000e+00 -1.0000000e+00 0.0000000e+00 
9.9847078e-01 5.5016853e-02 5.4122126e-03 
9.9846828e-01 5.5281401e-02 2.2544477e-03 
9.9918270e-01 4.0168811e-02 4.5137834e-03 
9.9954379e-01 3.0203030e-02 0.0000000e+00 
REACTION 3 2292  float
-2.3897972e+02 1.5623412e+02 -1.2916945e+02 
-3.5585324e+02 -1.6110292e+03 -6.2617285e+02 
-2.4569655e+02 1.1480402e+03 -2.2403564e+02 
-2.3384626e+03 2.9028159e+03 5.8127600e+02 
9.3540020e+03 1.7112896e+04 -1.3601910e+03 
2.2687817e+03 -6.1437847e+03 -1.0235391e+02 
-7.0721255e+03 -6.7825728e+03 -5.0470762e+03 
1.9741262e+00 -2.2606778e+00 7.2850689e-02 
2.0449012e+03 -8.8672432e+03 1.6970652e+03 
-6.8784733e+00 1.0297844e-01 -4.4167409e+00 
-3.5006042e+03 5.2858223e+03 -1.9066630e+03 
3.4643751e-01 3.0862219e+00 -1.2364151e-01 
4.6399059e+04 2.5092502e+04 2.4391209e+04 
7.2180215e+03 -3.9285474e+03 -2.8124146e+03 
-1.6940930e+04 -8.9618389e+03 -1.1148776e+04 
1.1281898e-02 2.7991959e-01 -7.0652366e-02 
-1.1355909e+04 -1.7307934e+04 6.0052217e+03 
2.0065979e+01 1.3210761e+01 -1.1639861e+01 
1.2440573e+03 -2.1310350e+04 -7.6184424e+02 
-1.2257560e-01 -4.7093157e-02 3.6963886e-01 
-4.7897792e-01 5.7425555e-02 4.1793406e-01 
5.1628184e+04 -3.4612397e+03 2.3079873e+04 
-8.0030377e+02 -2.2427000e+03 -1.2503992e+03 
4.4114458e+03 1.2078459e+02 -1.2210229e+04 
-3.3265185e+00 4.4735417e+00 6.1975616e-01 
-2.2372228e-01 1.7079444e-01 1.4339709e-01 
4.5019671e-01 6.0403752e+00 7.3958659e-01 
-3.3359878e+00 1.1776180e+01 4.8021011e+00 
-3.1816459e+04 -4.4004263e+03 -2.3354953e+04 
-1.0174099e+04 1.2910804e+04 -3.7152112e+02 
-2.1021990e+03 -4.7825703e+03 1.3478380e+03 
1.9706113e+04 4.4977062e+04 9.5880137e+03 
3.5089383e-01 7.6590407e-01 -1.0990613e-02 
-2.5551421e+03 8.3442334e+03 -1.2837917e+03 
2.1188582e+03 -4.8002847e+02 8.4977373e+03 
1.7735884e+01 6.0568440e-01 7.5778694e+00 
-1.7753361e-01 2.0908706e-02 -9.3553409e-02 
7.8565006e+00 -2.2795017e+00 6.8841271e+00 
-1.3616135e+04 -1.9820658e+04 -6.0183364e+03 
1.3321136e+00 -4.1967592e+00 -8.0422372e-01 
-1.8213184e+02 4.6833687e+03 -6.6877523e+04 
-7.0093133e-02 -3.7751630e-02 9.0686910e-02 
7.4318194e+00 -1.2148090e+01 -2.9891291e+00 
-3.9323136e-01 1.4592417e+00 2.0416570e+00 
4.5833926e+03 -1.8751162e+04 -1.1692999e+04 
-4.9617358e-02 -8.2322019e-01 -3.2943422e-01 
-3.9184109e+04 1.3045418e+04 3.0944879e+04 
-1.9833525e+04 5.1177607e+03 6.4944434e+02 
2.4062736e+00 -1.4524575e+00 1.2055851e+00 
4.0478546e-02 -7.0556372e-02 2.0639314e-01 
-1.9462625e+00 -1.4634205e+00 7.9526287e-01 
-1.5217569e-01 -3.9650168e-02 1.2213390e-02 
-2.7808798e-02 1.4531844e-02 6.0105633e-02 
2.9640871e-01 -8.3998287e-01 -4.1251692e-01 
-1.5670223e+00 -1.4610268e+00 3.7222227e-01 
-1.8580058e+00 3.8479538e+00 -4.9962301e+00 
6.9944928e+02 3.7369639e+03 2.9097913e+02 
7.8092002e+03 -2.3013537e+04 1.5258670e+04 
1.2788545e+00 7.1245110e-01 4.8435222e-02 
-1.4408313e-01 -3.7523344e-01 7.9622883e-01 
-5.8874127e-02 -3.8866743e-02 6.8648681e-02 
1.3243473e+04 -1.4858461e+04 1.7326867e+04 
4.0875831e-01 8.1601389e-02 2.3155184e-01 
-8.8751808e-02 1.2945330e-01 2.5182495e-01 
8.5746998e-01 -1.3251774e+00 4.1773024e+00 
2.7769640e-02 -4.3779582e-02 1.3822934e-01 
-1.7001789e+00 -1.8474263e+00 -2.0822968e-01 
1.7867396e+04 -7.9053760e+03 -9.1011895e+03 
-2.1789190e-01 -1.1930526e-01 1.2323763e-02 
2.6664705e+00 6.0514569e-01 4.0276489e-01 
2.3177922e-01 2.2584857e-01 -1.3212604e-02 
1.7582187e-01 -5.6143153e-01 1.8623871e-01 
-1.2507449e+04 1.3020604e+04 2.0447059e+04 
1.6457766e-02 -1.2997213e-01 -1.3971569e-01 
1.3288442e+04 1.4126907e+04 -1.1872664e+04 
4.3481059e-02 -7.3934413e-02 1.1434620e-02 
2.3898689e+03 3.7051056e+02 -1.3112815e+04 
-4.6059877e-02 -2.6318114e-02 4.8297741e-02 
-1.6535984e+04 1.1712211e+04 -7.7762974e+03 
4.1865396e+00 2.8509617e+00 1.2948978e+00 
1.1852417e-01 4.7575835e-02 9.9103242e-02 
1.2555223e-02 -3.1891596e-02 9.6607313e-02 
-5.8548999e-01 -4.5699182e+00 -3.3659406e+00 
-2.9659338e-02 -5.4864492e-02 1.5343711e-01 
-7.5172251e-01 -2.7752331e-01 -3.3256978e-01 
-5.5683844e-02 -5.6960352e-02 4.8835580e-03 
9.9495888e-02 -3.3039473e-02 1.1783825e-02 
-8.0563447e+03 -4.6929873e+03 9.1709736e+03 
-2.5903299e-01 -1.4838643e-01 3.4183100e-01 
-3.1567412e+03 -1.0554351e+04 3.1614788e+03 
-1.5808433e+00 6.6243041e-01 -2.6174238e-01 
1.4206174e-01 6.1994400e-02 2.9494787e-02 
3.9459579e-03 -8.6104929e-02 1.9978043e-02 
-1.9701233e-02 -1.2333510e-02 1.9707475e-02 
-1.3177487e+00 1.6073186e+00 5.8341765e-01 
1.5830955e+04 2.6789314e+04 1.5487280e+03 
-2.4223676e-01 -2.5939983e-01 2.0484332e-02 
-9.8716086e+04 4.6126773e+04 1.9368863e+04 
2.6556250e-02 3.2067351e-02 3.0289004e-02 
5.7801966e-02 -3.6025485e-01 8.9925647e-02 
1.9655840e-02 -3.0785050e-02 5.2383713e-02 
3.0343248e-02 -3.8147613e-02 3.3488203e-02 
-2.6904261e+01 -1.0980931e+01 -5.6617260e+00 
2.8445000e+04 -1.4511279e+04 6.9293350e+03 
-8.7439162e-01 3.3428410e-01 -2.2432810e-01 
2.2812257e+00 2.8643787e-01 -8.9666092e-01 
5.7162945e+04 -2.2573756e+04 -1.2089860e+04 
-4.3502308e-02 -3.1547494e-02 1.0698806e-02 
1.2424407e-02 -6.9170729e-03 4.9850814e-02 
3.1229621e-02 -5.6033611e-02 1.6477583e-02 
2.3310348e-02 -9.8620534e-02 -4.4770115e-03 
6.3769155e+03 -3.3390734e+04 -3.0796040e+03 
4.3389514e-01 -1.1286581e-01 1.2215664e-01 
-8.4965254e+03 1.6148207e+02 -3.2053857e+03 
4.5804303e-02 2.9058753e-02 -2.4154922e-02 
-1.2301340e+00 -3.0565505e+00 3.0849919e-01 
7.1838653e-01 -7.9907186e-02 -2.3057206e-01 
-2.6885837e-01 -2.3363097e-01 9.1276146e-02 
7.1816020e+00 2.3193598e+01 1.2261799e+01 
-7.3758727e-03 -4.6644020e-03 8.8646980e-03 
1.8522134e-01 -1.9246049e-01 6.5839842e-02 
7.2224159e-03 -1.3932840e-02 2.3654481e-02 
6.6569713e-03 1.5993368e-02 1.6518770e-02 
2.0610869e-02 -2.9820707e-02 5.6140395e-03 
-2.6347607e+03 -7.1831451e+02 -6.7044899e+01 
-9.1357975e+00 1.9560213e+01 1.8594692e+00 
1.1330089e-01 -7.8476891e-02 2.9077191e-02 
-2.1045057e-01 -6.2130845e-01 3.5937539e-01 
-1.1602204e-01 -8.3124965e-01 7.5442332e-01 
-3.1166201e+00 -5.6256896e-01 2.3390889e+00 
1.6636346e-01 -2.2958116e-01 5.2904338e-02 
-5.8968067e-01 -2.8299475e-01 4.9351612e-03 
-8.3714686e-03 -5.8419667e-03 -6.9772021e-04 
1.4851580e+03 1.1179903e+04 -1.4734778e+03 
2.0592438e-01 -1.4158371e-01 6.2518328e-02 
1.7527202e-03 6.1485246e-03 -9.6751899e-03 
6.9371727e-04 -4.2150305e-03 1.3726501e-02 
-1.8417786e+03 2.7391418e+03 -7.9844794e+02 
8.5165128e-02 -9.3529373e-02 5.2837819e-02 
8.3851671e-01 6.0151535e-01 4.4084195e-02 
1.2975948e+00 8.0534687e+00 5.2565928e+00 
-1.3734095e-03 -4.1144658e-04 1.1093343e-03 
-2.0219173e-02 -7.3929220e-02 2.2692315e-02 
-8.0009316e+03 -5.8922791e+02 6.0064927e+03 
3.7383728e-04 -3.5489653e-03 -1.8818181e-03 
3.5937534e+03 -5.9218062e+03 1.5935249e+02 
-3.4708418e+03 -1.0099623e+03 3.0796626e+03 
1.7259016e-03 5.3736367e-03 7.1333479e-03 
-1.3350435e+00 -1.3191254e+00 1.0266280e+00 
-1.1542561e-01 -1.5582447e-01 3.2745488e-02 
-7.2033559e-03 2.8080067e-02 -1.9743981e-02 
-2.7560196e+01 1.8795458e+01 4.5089059e+00 
5.0684530e-03 -2.4057828e-02 6.7065624e-03 
1.3315995e-01 6.7861103e-03 7.7361934e-04 
3.5988125e-01 -6.1437955e+00 1.3026744e+01 
-2.8987439e+03 5.0993906e+03 3.1047100e+03 
-6.0648285e-03 8.0636423e-03 -7.3742825e-03 
5.3654048e-03 -5.1417509e-03 4.6314187e-03 
6.0985513e-02 5.2022211e-02 1.5387122e-01 
-2.1881962e+00 7.9523355e-02 -2.0109904e-03 
1.0834524e+04 -9.6162637e+03 -9.3107324e+03 
2.9625134e-03 7.1940674e-03 -1.0382214e-02 
2.9571924e-01 -4.6220154e-01 2.4876916e-01 
-8.9254379e-01 -9.2322922e-01 -7.4436754e-01 
1.6610046e-03 2.2542560e-03 -2.7824384e-03 
-1.5071728e-02 1.6590080e-03 1.1068506e-02 
-3.0226055e-01 2.0698486e-01 3.3045426e-01 
-4.5603565e-03 -3.9202436e-03 5.2908581e-05 
3.4885120e-02 4.3439819e-03 1.3112557e-02 
-2.3881369e+02 3.6015332e+02 -1.2028970e+02 
3.5035086e+02 -5.5904297e+02 -4.0919044e+01 
-2.5213240e+02 8.7259406e+02 2.3373033e+02 
1.7589269e-02 -1.4174712e-02 4.1908040e-03 
6.9558592e+00 -6.5721893e+00 -6.8000059e+00 
-1.8542536e-01 -1.8406923e+00 2.8909750e-02 
7.8115283e+03 1.3481648e+04 -1.9756504e+03 
-5.2254199e+03 -5.2023696e+03 3.1666611e+03 
8.9705288e-01 -1.1869415e-01 -1.9289563e+00 
4.8847415e-02 -3.4635972e-02 1.9025514e-02 
1.4740604e-03 4.6453038e-03 6.4937887e-03 
-1.8285322e-01 -3.5305709e-01 1.0929046e-02 
3.6836803e+00 -1.0934370e+00 -2.7410385e-01 
-5.2139783e+00 7.1732635e+00 2.8233044e+00 
2.0747518e-02 -4.0448672e-01 2.5104111e-01 
-1.5442517e-02 1.4110435e-03 2.9612260e-03 
6.7002504e-05 2.9714820e-03 1.3921544e-03 
7.3789214e+03 2.1874202e+03 -2.2953699e+03 
1.7933725e-01 -9.8219097e-01 -4.2669091e-01 
6.2992096e-02 1.6003683e-02 -1.7128453e-02 
-6.8924385e-01 -1.4146665e+00 -2.9316539e-01 
1.2982394e-01 -6.8182088e-02 6.7211919e-02 
-5.1169527e-01 -4.0867326e-01 5.8002574e-03 
-3.8208488e-01 -1.8686923e-01 -1.3133344e-02 
2.3738268e-01 1.4444678e-01 1.7783316e-02 
1.3453430e-02 -1.2416776e-02 1.6995415e-02 
1.2278966e+00 8.1130391e-01 3.0645818e-01 
9.4076396e+03 -2.7628014e+04 -5.4352598e+03 
-7.0649996e-02 1.0109559e+00 7.2073705e-02 
1.3486708e+00 4.4870725e-01 -1.8408957e-03 
-6.8166143e-01 -1.3086144e+00 -1.2660721e-01 
5.8182545e-02 -9.6185870e-02 -3.1704437e-02 
-2.7882556e+03 -5.6603198e+03 2.5214431e+03 
-1.6239664e-01 -3.9679881e-02 -1.1233578e-01 
-1.0538735e+00 1.6034927e+01 5.4095650e-01 
2.0047873e-03 9.3749054e-03 -3.6847973e-03 
-1.7750393e+04 2.5364453e+04 1.0399882e+04 
-9.8605817e-03 1.9807676e-03 3.0286897e-03 
-1.0950653e-03 -4.6013910e-02 1.2465156e-02 
1.0123228e-03 1.7789684e-03 -1.7967217e-03 
-1.1558574e-02 -7.8053726e-03 -6.3029462e-03 
2.3634601e-01 -5.7962728e-01 -7.8453936e-02 
-1.2966846e-02 9.6431999e-03 -2.2897159e-03 
-2.9988989e-01 -1.3245113e-01 -1.4958420e-02 
-1.0126207e+00 1.1074245e+00 -1.1492454e+00 
1.6848159e+00 3.3470428e-01 3.0071259e-02 
4.6734760e+01 4.6695274e+01 -2.1838068e+01 
2.6154643e-01 -1.6954061e-01 -2.3140518e-02 
-1.6371751e-02 7.8700949e-03 -1.2839998e-02 
-1.2457842e-02 -6.2245391e-03 2.2090988e-02 
-3.4608948e-01 2.0176085e-02 -2.0203142e-01 
4.1626889e-02 -1.9059755e-01 1.9821782e-02 
-2.8538996e-01 -1.1223472e+00 -1.8115509e+00 
-2.2349756e-03 3.8460497e-02 -2.0427490e-02 
-2.1245030e-03 7.5948630e-03 1.1006287e-02 
1.9427654e+00 9.5622969e-01 -9.6553046e-01 
-3.3891152e-03 -2.4293071e-01 -5.6742710e-01 
-7.7996624e-04 2.9514143e-03 1.4968559e-03 
3.3571345e-01 -3.2887131e-01 -9.7460272e-03 
-3.7858173e-01 -2.2367001e-01 -2.6669383e-02 
1.3165350e-01 1.8130332e-01 7.0790671e-02 
-1.7528912e-02 1.2759084e-02 -9.2435274e-03 
-1.8357928e-01 -1.0618613e-01 -1.6619416e-01 
-1.1369268e-04 -9.9597382e-04 4.1720625e-03 
4.0531121e-02 -1.1722675e-01 -5.2523771e-03 
9.9236047e-01 -1.7143530e-01 -9.4221097e-01 
2.0707047e-03 2.5683971e-02 -7.0423833e-03 
-2.4180383e-04 -1.4274177e-03 1.3986143e-03 
7.3979214e-02 -5.1302648e-01 -1.0326992e+00 
-1.4782627e-02 -1.2818874e-01 -3.2287216e-01 
3.9521791e-02 -1.2749764e-01 -4.1286438e-03 
-5.9762444e-02 4.1861448e-02 1.3293764e-02 
5.8807373e-02 -4.9211243e-01 6.1297799e-03 
-3.6666717e-02 4.8009854e-02 -2.2161908e-04 
-7.0822306e-02 -1.2812005e-01 1.1110017e-02 
1.3205440e-02 2.0800551e-02 4.1603938e-02 
-1.3734156e-01 -2.4019600e-01 -2.3533091e-02 
-1.8533435e-01 -1.3710918e-01 -2.3964668e-02 
-1.5217514e-02 7.0200758e-03 -1.7445136e-03 
-1.6524017e-01 -9.9558629e-02 -1.3289307e-01 
4.5324922e-02 -3.7399750e-02 2.1262842e-03 
-1.4864086e-03 1.0245386e-02 1.6987873e-02 
3.2627130e-01 2.1921629e-01 -3.0860838e-01 
1.8234657e-01 1.2948760e-01 5.2127191e-03 
1.5617758e-01 1.3562147e-01 2.6438586e-02 
-5.7542389e-03 -5.0332728e-03 7.9320942e-04 
-9.0041272e-03 -3.5486512e-03 2.9977256e-02 
6.7226052e-02 -1.5071936e-01 -3.6262438e-01 
-1.1194792e-02 8.4561974e-02 -1.2982242e-02 
3.4133345e-02 4.5936920e-02 2.6936078e-02 
2.4498947e-01 -2.4664207e-01 -4.4919947e-01 
-1.0264071e-02 -1.6776841e-03 1.3971514e-02 
-7.9449013e-02 -2.9098336e-03 1.3245319e-02 
5.6170531e-02 -1.0070890e-01 -9.8590460e-03 
7.6154031e-02 -4.0981039e-02 3.3780459e-02 
-6.0412050e-03 8.7757977e-03 -1.5319330e-03 
-9.3006529e-03 6.7347160e-04 -2.0160233e-03 
-3.0428369e-02 2.2619298e-02 -2.9077732e-03 
-2.6382459e-02 -1.4668206e-02 9.1508497e-03 
1.7498783e-04 -4.6084393e-03 3.8149736e-03 
-8.8378750e-02 -8.5195683e-02 -8.9423031e-02 
3.5625421e-03 2.6713036e-02 -4.3443963e-03 
9.0615796e-03 -3.9385404e-03 -1.9391578e-02 
-3.2426465e-02 3.1732621e-03 -3.0323188e-03 
-7.3757984e-02 -5.4391284e-02 -7.4918120e-04 
1.1553629e-01 1.2179058e-01 -1.2660982e-01 
3.5771001e-02 -9.8502383e-02 -2.1742184e-01 
1.0281238e-01 -6.7475788e-02 3.7913027e-03 
1.1979111e-02 1.3173345e-01 -1.0726304e-02 
5.4014970e-02 5.0809160e-02 1.8425807e-02 
7.5463735e-02 -8.8858180e-02 -2.2283015e-01 
4.7565140e-02 -1.1013073e-03 3.4220337e-03 
-8.8243987e-03 -1.3439067e-02 4.5939740e-03 
-1.4479580e-02 1.0524494e-01 -1.1273094e-02 
-1.3070953e-03 1.3681370e-02 1.7740287e-02 
-4.3717317e-02 -7.8012063e-03 2.7471939e-02 
3.6145408e-02 -8.2714625e-02 -7.7683409e-03 
-4.9254112e-02 -4.1201632e-02 -5.2982230e-02 
-1.1141348e-02 -1.1287938e-03 2.3556406e-02 
1.3593797e-02 -4.0138450e-02 -1.3480625e-01 
-1.0653425e-02 -7.0801098e-03 4.7252849e-02 
6.1816860e-02 5.3949796e-02 -8.0789275e-02 
-4.5355674e-02 -6.7873903e-02 -9.7922953e-03 
-8.3475355e-03 5.3686340e-04 -1.0729730e-03 
-2.3412853e-03 -8.3307438e-03 8.0951666e-03 
-7.8330711e-02 -8.4735855e-02 7.2953538e-03 
-7.2021158e-03 5.7944454e-02 2.0991163e-03 
-4.0953401e-02 -4.3750480e-02 2.5101176e-02 
-8.4975216e-04 5.3290002e-02 -6.4455243e-03 
-4.2356566e-02 5.0515863e-03 -8.0706989e-03 
3.5360936e-02 5.1986869e-02 1.2919608e-02 
-3.3695664e-02 1.4665733e-02 6.8064202e-03 
2.8440744e-02 -1.7496238e-02 -1.4970022e-01 
8.0341622e-03 2.1124583e-04 1.0591070e-03 
-6.9311276e-02 1.8682197e-02 1.3370856e-02 
-3.0530704e-02 3.2451148e-03 5.0606793e-03 
-3.0905418e-02 -2.8698171e-02 -3.8538706e-02 
-3.7172973e-02 5.3686108e-03 9.7934678e-03 
-2.7562403e-03 -1.1582232e-02 -5.4631226e-02 
-1.5395129e-02 -1.4628003e-02 7.7459635e-04 
-2.1900684e-02 1.6162673e-01 -1.3957027e-02 
-4.9881428e-02 6.1253700e-02 1.3398990e-02 
4.1303843e-02 9.1710642e-02 1.4858144e-02 
-1.0095797e-03 1.5894316e-02 1.8849671e-02 
2.1078043e-02 3.0421240e-02 -4.0656317e-02 
-9.6854689e-03 -8.1028668e-03 4.9138553e-02 
-2.1600518e-03 -1.3438956e-03 2.2432730e-02 
-2.5139388e-02 -9.7155333e-02 2.6286889e-02 
-2.6982769e-02 -3.5637297e-02 -1.2948168e-03 
-2.1348616e-02 -1.5849274e-03 2.3656102e-02 
-4.3214008e-02 -5.8162820e-02 9.3523357e-03 
-3.0505706e-03 -1.4004920e-02 1.3730917e-02 
-1.8963451e-02 3.5561461e-03 2.2980802e-02 
-4.3766178e-02 1.5598069e-02 -5.2785934e-03 
-2.0670932e-02 -1.8969590e-02 -2.7199216e-02 
1.8088435e-03 1.8739430e-02 -8.8918045e-02 
-2.8688016e-03 3.6967073e-02 -3.2661676e-03 
-5.1087099e-03 -5.1969439e-03 -7.7562407e-02 
-8.9934841e-03 1.7568046e-01 -8.3096037e-03 
2.6067680e-02 4.4216014e-02 1.1864329e-02 
-6.1578237e-02 3.4527373e-02 3.6472723e-02 
-3.0557325e-02 -5.1107554e-04 6.0885660e-03 
7.2671648e-04 2.7232662e-02 -3.1765126e-02 
-9.4175572e-03 -3.4174297e-02 4.0500350e-03 
-6.9074631e-02 -3.9841380e-04 2.2885570e-02 
-3.6962252e-02 -4.2457230e-02 7.1223225e-03 
-2.9730923e-03 1.4960650e-02 2.0275503e-02 
-1.0420942e-02 -6.0546743e-03 3.8661782e-02 
-7.2472185e-02 4.8888732e-02 7.6962593e-03 
-2.0275531e-02 1.6653499e-01 -1.6651999e-02 
-5.3751022e-02 -8.1034064e-02 2.1168057e-02 
-7.3975176e-02 -2.1501619e-03 4.0342011e-02 
-4.6035787e-03 -9.2168963e-03 5.6124769e-02 
-7.7660084e-02 -1.0753319e-01 3.6175337e-02 
-2.1014167e-03 -1.7319867e-02 1.6729275e-02 
-3.3024732e-02 2.4431800e-02 2.0470710e-02 
-1.6319524e-02 5.9516937e-03 -5.0873467e-04 
-7.1898731e-03 1.4846619e-02 -6.4462930e-02 
-2.0859446e-02 -1.5540199e-02 -2.4958203e-02 
-1.0431751e-01 3.3580255e-02 2.7879365e-02 
4.4156626e-02 8.2366750e-02 -1.1428935e-02 
3.2472406e-02 3.3424988e-01 -2.7366506e-02 
-5.4592732e-03 3.6690198e-02 -3.0284433e-03 
-8.2916446e-04 5.7364366e-04 6.4209746e-03 
-1.9827023e-02 2.1494601e-02 7.0654234e-04 
-3.8453028e-02 1.5859013e-02 -9.3824945e-02 
6.7402045e-03 3.1572286e-02 -3.8502011e-02 
-2.7295794e-02 -4.0178206e-02 4.7137979e-03 
-4.0450711e-03 -2.7859423e-02 2.7969263e-03 
-4.3713063e-02 4.9612438e-03 1.8556200e-02 
9.2668517e-04 2.5353742e-01 1.1704318e-02 
-5.2837455e-03 -6.6353749e-03 4.5385059e-02 
-2.8632479e-02 1.6218271e-02 1.9973943e-02 
-6.1039235e-03 1.6679445e-02 2.0667130e-02 
-7.0852995e-02 -1.5752602e-01 3.2836065e-02 
-2.7133828e-02 1.9682389e-01 3.8132814e-03 
-3.1588450e-02 5.9055607e-03 3.3121046e-02 
-1.5980983e-02 1.4043781e-02 -3.9744064e-02 
-1.4590575e-01 1.9540850e-02 5.6664351e-02 
-1.8277304e-02 -1.6929204e-02 -2.3600524e-02 
-4.7197496e-03 -8.6537935e-03 7.0928097e-02 
-1.8148476e-02 -1.1485077e-01 1.4676701e-02 
-1.8107911e-03 -2.0653903e-02 1.9675972e-02 
-1.6154028e-02 5.8891714e-02 -2.3554715e-03 
1.9159403e-02 8.5221931e-02 -6.0636862e-03 
-4.8473559e-02 1.4979541e-02 1.9684670e-02 
-3.0299973e-02 1.5935344e-01 -1.6738378e-03 
-2.5540949e-03 3.9305165e-02 -4.7670327e-02 
-2.9420963e-02 1.9421117e-02 -8.5441299e-02 
-3.6722638e-02 -6.3058898e-02 1.2287169e-02 
2.3996739e-03 9.1053121e-04 1.5192841e-03 
-3.3217985e-02 1.1941791e-03 4.8958827e-02 
7.9600373e-03 -5.3514530e-05 1.3283293e-02 
-1.1083446e-01 2.9175952e-02 7.7189706e-02 
-9.3048811e-03 -6.4771632e-03 5.5974483e-02 
-5.6559416e-03 -5.5557132e-02 7.0914631e-03 
-6.8427003e-03 1.5473233e-02 2.6098033e-02 
-2.7797543e-02 2.5595021e-02 -6.6999204e-02 
-8.5006915e-02 -1.6356139e-01 3.8320631e-02 
-2.0615432e-02 -1.9784262e-02 -2.4905443e-02 
-7.3377080e-02 1.8717095e-02 1.9638347e-02 
-1.0489512e-01 -2.0798254e-01 4.9929302e-02 
-3.9817695e-02 4.0233213e-02 2.8843295e-02 
-1.2713700e-03 -2.2518376e-02 2.2073181e-02 
-7.1321666e-02 -4.5559442e-04 5.4331161e-02 
3.8055401e-02 1.6017230e-01 -1.7937139e-02 
-5.2566249e-02 1.6299361e-01 -6.7686377e-04 
-1.7419475e-03 2.7129357e-03 2.8420712e-03 
-4.4383392e-02 -2.2839570e-02 1.0293676e-01 
-1.4917589e-02 3.6967255e-02 -1.1196740e-04 
-3.4663387e-02 -4.7901361e-03 3.8393345e-03 
5.0109760e-03 4.6487398e-02 -5.0654322e-02 
-2.8741478e-03 -7.1157906e-03 6.1536890e-02 
-4.2108200e-02 -6.5104268e-02 1.3501414e-02 
-5.3875111e-03 -6.0077156e-03 4.3226674e-02 
-6.3053697e-02 4.1684371e-01 -3.7226222e-02 
-3.3487234e-02 2.5453396e-02 -7.3662348e-02 
3.2210492e-03 1.0829399e-03 7.2471602e-03 
-3.7523802e-02 1.7811125e-02 -1.1882813e-01 
-2.1420522e-02 4.0111941e-01 -1.8313676e-02 
-9.0316413e-03 1.5467073e-02 2.3532553e-02 
-2.8887542e-02 -1.9252242e-01 4.1807402e-02 
3.3248088e-03 -3.6647473e-02 3.6725728e-03 
-2.2433903e-02 -2.5409212e-02 -2.8830787e-02 
-7.9311654e-03 -6.6069830e-03 9.8855728e-03 
-5.4645063e-03 1.9430969e-02 7.7565029e-02 
4.2440879e-04 -2.1832203e-02 2.2556344e-02 
-2.7064243e-02 5.2682284e-02 3.0685533e-03 
-1.5344529e-01 3.7975988e-01 1.8910205e-02 
-1.0353742e-04 -1.6904835e-01 2.3587037e-02 
-9.3719333e-02 -3.9884922e-04 6.2872350e-02 
-1.2298097e-03 1.2449006e-01 -6.4544142e-03 
-5.0044965e-02 2.8914163e-02 4.4605382e-02 
7.9983976e-03 6.2149107e-02 -5.5807021e-02 
-8.5059427e-02 -5.8439216e-03 7.6021865e-02 
-2.6933808e-02 7.8664236e-03 -1.2894541e-01 
-3.3103779e-02 -1.1442108e-01 1.9792538e-02 
-4.2674845e-04 -8.1905797e-03 5.4639112e-02 
-8.6701494e-03 1.9308254e-02 -6.9009423e-02 
-3.3160493e-02 -3.6197090e-01 4.8194695e-02 
6.3782302e-04 -8.7029561e-03 5.2827179e-02 
1.5545486e-02 3.6621089e-03 -3.1863977e-03 
-9.6475622e-03 1.4048614e-02 2.1990366e-02 
2.5408776e-03 -3.3777323e-02 2.5371513e-03 
3.9995667e-03 -2.0611992e-03 5.9045027e-03 
-4.2063624e-02 2.6867714e-02 3.0328108e-02 
-2.2204736e-02 -3.6353115e-02 -3.5538804e-02 
-3.7377474e-03 -6.2384433e-03 6.9366604e-02 
-6.4648292e-04 -5.3870217e-03 2.4823135e-02 
-7.0912629e-02 -3.0379683e-01 4.8304483e-02 
8.9797908e-03 6.2805153e-03 1.5830769e-03 
-2.4112098e-02 -2.6242480e-02 4.8116289e-02 
-9.5631100e-02 1.5264681e-01 9.9712210e-03 
4.1912934e-03 2.9779663e-03 5.6499639e-03 
1.8990843e-03 -2.8848014e-04 1.7874626e-02 
-2.2528728e-02 3.3837833e-02 1.3564599e-03 
1.7584129e-03 -2.5060385e-02 2.4425948e-02 
-2.4948735e-03 1.3301225e-01 -2.6404469e-03 
2.3437824e-02 -1.9403456e-01 4.4231232e-02 
-1.5751278e-02 -9.2480602e-03 9.9878351e-04 
-4.3243105e-03 -3.4733727e-03 6.1486185e-02 
1.6914136e-03 5.8544647e-02 -6.8378344e-02 
-4.5660291e-02 3.0439554e-02 -1.0420872e-01 
-3.4528999e-03 -7.1960259e-03 5.0358869e-02 
-1.1286777e-01 3.2964438e-01 2.1556623e-02 
-2.7806783e-02 -9.4292432e-02 1.6527629e-02 
-1.2336223e-02 1.5408199e-02 3.0352678e-02 
-1.1080197e-01 3.7751010e-01 4.5802998e-03 
-7.0007900e-03 1.4852252e-03 4.5153253e-02 
-5.2759866e-03 3.3728431e-03 -1.4667808e-01 
1.1653194e-02 -5.8647756e-02 6.8425224e-03 
1.8417843e-02 2.0849902e-02 1.8723737e-02 
-1.6304523e-02 -4.1218124e-02 -3.7796054e-02 
1.5942601e-02 -1.6245094e-01 2.9273832e-02 
-1.0970161e-02 1.2765430e-02 1.5798425e-02 
-4.3076076e-02 5.1868957e-02 3.5386446e-03 
-1.3577585e-01 2.3329750e-01 -4.4639651e-03 
-7.9563949e-03 1.9473499e-02 3.6210828e-02 
-1.8827247e-02 -1.9820431e-02 5.0900172e-02 
-4.7744371e-02 2.0520356e-01 -1.0515962e-02 
3.2083311e-03 -2.3626786e-02 2.3470419e-02 
-2.1484159e-03 -3.0129002e-03 3.8161330e-02 
-7.7154445e-03 2.5457893e-02 -1.3145642e-01 
-1.7386490e-02 1.8010249e-02 3.1305622e-02 
4.1684266e-03 7.5790368e-02 -7.4888393e-02 
-3.0161077e-02 -1.6881233e-01 3.4344986e-02 
8.9263171e-03 -3.5924187e-03 5.8518313e-02 
3.7815943e-02 -1.5458527e-01 1.9276844e-02 
1.1393615e-02 -3.8472865e-02 3.6085595e-03 
1.0607516e-02 -1.9780055e-03 -2.0086788e-01 
-1.5853452e-02 -5.0484531e-02 -4.4643585e-02 
-9.2311203e-04 -1.2316130e-03 6.9104983e-03 
-1.5335923e-01 1.6759585e-01 1.5679935e-02 
-4.2852677e-02 4.1526586e-02 -1.2640713e-03 
5.2935127e-03 -1.0351337e-02 6.9907211e-02 
-1.9448234e-02 1.3680851e-02 5.0778206e-02 
-4.1175853e-02 3.3522364e-02 2.7381262e-02 
-2.1535216e-03 -8.8662573e-04 7.2760113e-02 
2.0857412e-02 -4.5393232e-01 9.6457392e-02 
-2.4060620e-02 2.5909284e-02 4.6691205e-02 
-3.5838351e-02 1.5243347e-01 -1.3731123e-03 
5.1939823e-02 -5.9097540e-04 5.7167914e-02 
4.6284790e-03 -2.3455426e-02 2.3689944e-02 
-2.6950020e-01 4.1050518e-01 9.4094090e-03 
-1.8408507e-02 -4.5833048e-01 8.5950829e-02 
-3.3884437e-03 -4.5406749e-03 5.6674872e-02 
3.6061406e-03 1.5363101e-02 3.4158375e-02 
2.0437727e-03 -8.5161568e-04 7.1146800e-03 
-8.7814955e-03 3.4331128e-02 -1.2897722e-01 
5.8714370e-04 7.6093346e-02 -1.0031413e-01 
-1.5271023e-01 3.6128050e-01 3.3159312e-02 
-9.4777972e-02 6.5304287e-02 -1.1227731e-02 
2.0055437e-02 -5.6191236e-02 5.2309111e-03 
-9.4220815e-03 -1.1855061e-01 1.6459467e-02 
-2.5938153e-01 2.7511078e-01 -5.1560453e-03 
-1.2690464e-02 -7.6061967e-03 2.9947879e-03 
1.0285423e-01 -4.1958818e-01 7.8709118e-02 
-4.5771361e-03 -5.7489429e-02 -5.0014436e-02 
-3.6074199e-02 3.0683095e-02 6.6485092e-02 
-6.0507865e-03 -2.9235959e-02 1.8260360e-02 
-1.3197091e-03 -4.0663599e-05 6.5791003e-02 
-1.1611843e-02 -3.1506386e-02 6.4061964e-03 
-1.0154386e-01 2.0793174e-01 -7.0745503e-03 
-3.4875879e-03 -7.0139789e-03 5.9983872e-02 
2.4670735e-02 6.7305015e-03 -1.7804873e-01 
-8.5713282e-02 7.2781332e-02 -1.1771812e-02 
6.2616710e-03 -2.2353368e-02 2.3247287e-02 
-9.4707087e-03 2.7696002e-02 4.7029268e-02 
-2.0408955e-01 1.7387879e-01 -8.5960820e-02 
7.9172030e-03 2.1158237e-02 -1.2222819e-01 
1.0389489e-02 4.3799020e-03 2.4589123e-02 
-1.0677926e-02 1.0793507e-02 1.2112998e-02 
2.8350975e-02 -2.3943786e-02 5.1117793e-02 
-3.8703676e-02 4.6238333e-02 7.3401429e-02 
-1.0862992e-02 7.8329369e-02 -9.1872253e-02 
4.3322887e-02 6.0867360e-03 6.1323453e-02 
-3.9724514e-04 -3.4631535e-03 8.1265472e-02 
4.4391910e-03 -1.2315516e-01 1.5932547e-02 
2.1595847e-02 -1.7805003e-02 7.0939906e-02 
6.7980778e-03 -6.7036478e-03 2.0761399e-02 
6.3515596e-02 -1.5504606e-01 2.5503106e-02 
-8.4212888e-03 -3.2697506e-02 7.1613169e-03 
2.0096632e-02 3.3588644e-02 2.7957022e-02 
-1.4107849e-01 4.7648411e-02 -6.0395729e-02 
2.1104705e-02 -3.5174750e-02 5.1702681e-04 
-2.1739282e-01 2.1910299e-01 2.4195647e-02 
2.0028825e-03 -5.9229899e-02 -5.6244578e-02 
1.4034398e-02 2.9396158e-01 1.4791621e-01 
-8.0495159e-04 -2.3025468e-03 3.9150741e-02 
-6.3156858e-02 1.3449597e-01 2.0043133e-04 
-1.5868494e-01 1.5433243e-01 5.8799565e-02 
1.0114335e-01 -3.5200214e-01 3.2573789e-02 
2.8424375e-02 2.3058219e-02 5.9913989e-02 
7.9422379e-03 -2.0274753e-02 2.2042664e-02 
8.4634414e-03 5.9792399e-01 2.6524284e-01 
3.1307687e-03 3.7092067e-02 -1.5197057e-01 
-1.9610796e-02 -3.3135214e-03 2.8476531e-02 
-2.0846631e-01 6.2239182e-01 -5.9289229e-01 
-1.0001777e-02 7.9489075e-02 -9.3365230e-02 
-1.8166851e-01 2.7922153e-01 2.4699224e-02 
-3.2853138e-02 -2.8254772e-02 -2.7051300e-02 
-1.7532889e-02 -6.9430016e-02 1.3030975e-02 
7.7960789e-02 -4.0467003e-01 7.0914179e-02 
5.0396495e-02 2.1155789e-02 -2.3287195e-01 
-4.1950202e+00 -2.9700096e+00 2.2652485e+00 
8.1992000e-01 -1.6559289e+00 1.7327788e+00 
-1.9760036e+01 2.3586061e+01 6.8686986e+00 
2.2367887e-02 -1.9638011e-01 3.5159823e-02 
3.0640576e-02 -5.3648323e-02 3.3404522e-03 
1.6778180e-01 -2.9844296e-01 3.4393363e-02 
2.3311148e+04 1.9675438e+04 -1.3790461e+04 
-1.1268431e-04 -6.0942123e-04 1.2255790e-01 
7.5130659e+03 2.4087455e+04 1.5902322e+03 
-1.3518513e-03 -4.5187045e-03 5.6003448e-02 
1.8447355e+03 -4.0131497e+03 -1.7798677e+03 
-3.6613426e-01 3.5804322e-01 -5.9550498e-02 
2.6834184e-02 -1.7153148e-02 1.4513041e-02 
-1.2443165e-01 1.6364387e-01 -5.1195016e-03 
-1.1151004e+04 -9.8770547e+03 9.2563271e+03 
1.1635630e-02 -6.8921231e-02 -5.8945280e-02 
-2.7608419e-02 1.3456261e-02 6.9235945e-03 
5.9559148e-02 1.2860842e-02 -2.0882708e-01 
-5.3308312e-02 -1.1864230e-02 -4.1576602e-02 
3.1178257e+00 -2.8325632e+00 -2.2665110e+00 
1.9474339e-02 6.9799074e-03 -4.2489577e-02 
8.8544572e-03 -1.9058717e-02 2.1603728e-02 
5.1521250e+03 -1.2620349e+03 4.2758337e+02 
2.3562972e-02 2.9059963e-02 -1.4807369e-01 
-1.3868132e-02 -7.8865206e-03 -6.1618770e-04 
2.2631889e+04 -2.6190533e+04 6.7278229e+02 
-1.3529470e-02 7.4482284e-02 -1.0248622e-01 
3.3920761e-02 5.1051617e-02 6.8467832e-03 
1.0916984e-02 1.1594812e-02 1.4715672e-01 
-3.7294451e-02 4.4890171e-01 -1.3456292e-01 
2.2499971e-02 1.2601147e-02 7.9857342e-02 
9.5264830e-02 -1.5417449e-01 1.0265714e-02 
-2.9444355e-03 5.2553882e-05 6.1035108e-02 
2.3544155e-02 -3.4490194e-02 2.5113204e-03 
-7.1252652e-02 1.0357230e-01 5.0549805e-03 
3.0045046e-02 -1.4023009e-01 2.4714116e-02 
4.6755654e+03 -1.4873382e+04 3.8159839e+03 
1.7981846e-02 -2.7606247e-02 1.3694549e-02 
8.3345316e-02 4.9624857e-01 1.7036791e-01 
2.1294739e-02 -6.8916932e-02 -6.1595704e-02 
-4.2375721e-02 -1.0501845e-02 3.3774029e-03 
1.8570946e+00 3.7376163e+00 1.5424052e+00 
-1.7969656e+03 1.3891683e+04 2.0754207e+03 
1.8465677e-01 -3.8572183e-01 4.9938332e-02 
4.2298015e-02 2.1938229e-02 2.1133665e-02 
-6.0516242e-02 -2.6659945e-02 -1.9267112e-02 
3.5450127e+00 -5.7113481e+00 -1.1352577e+00 
1.1545231e-02 -1.9013120e-02 2.2285335e-02 
-2.7743580e-03 -2.4533236e-02 1.2473923e-02 
-2.2687532e-02 -2.5358114e-02 9.8376265e-03 
-7.5419005e-03 -8.7736603e-03 -2.3006927e-03 
1.6299512e-02 2.0694522e-02 -1.1992352e-01 
-3.0749699e-02 7.3044226e-02 -9.1621719e-02 
2.6740531e-02 6.0597304e-02 1.7437175e-01 
5.1207724e-03 5.8135916e-03 5.5636719e-02 
1.0137257e-01 1.4052238e-01 -1.5727197e-01 
-6.8451171e-03 -8.0510071e-03 7.5299270e-02 
-4.7095988e-02 1.0002862e-01 -1.3325603e-01 
-9.7871430e-02 1.3498566e-01 2.9682384e-03 
2.9711964e-02 3.3456597e-02 3.2219168e-02 
1.3666841e-01 -3.4859505e-01 4.3407466e-02 
-1.7282881e+04 -1.3153200e+04 7.6349683e+03 
3.6391955e-02 -5.8186349e-02 5.5390284e-03 
-6.8888433e+03 -9.0181195e+02 2.9133347e+02 
-7.0617065e-02 2.4927962e-01 -1.9463883e-01 
8.8895879e+03 -5.0373423e+03 -2.8186152e+03 
1.4801364e-01 -2.1564353e-01 1.8323975e-02 
-9.4094098e-02 6.3951977e-04 7.5871855e-02 
5.9878930e-02 -1.9033135e-01 2.1863988e-02 
6.8212949e-02 3.8780402e-02 -2.4122231e-01 
3.5579619e-01 1.6811926e+01 -5.7250798e-01 
1.2477579e-02 3.4419363e-03 3.6624070e-02 
-3.8076900e-02 6.8838626e-02 -9.4887115e-02 
1.4467638e-02 -1.9335492e-02 2.4089355e-02 
-8.5568197e-02 2.1845776e-01 2.1459013e-01 
2.7915154e-02 -6.8047442e-02 -6.2803440e-02 
2.3782058e-01 5.5462319e-01 4.5040041e-01 
1.9604692e-03 6.9431996e-04 6.3659362e-02 
9.5971520e-10 -5.2845689e-10 -1.0624870e-10 
4.4754200e-02 2.9118914e-02 -1.6399792e-01 
9.1244690e-10 -2.9728986e-10 -4.2560880e-10 
1.3245848e+00 6.2877541e+00 -8.8654919e+00 
1.4204427e-10 8.3099583e-10 -4.9657328e-10 
1.1358001e+00 1.7358599e+00 -3.5310555e+00 
-2.4801808e-11 1.6437332e-10 1.0665530e-10 
-9.1088161e-12 1.5459179e-11 3.0835809e-10 
-2.0917701e-10 -1.0794897e-10 1.7252812e-10 
1.7179638e-10 7.7529394e-10 -5.7957844e-10 
3.0948932e-10 7.3254666e-11 -4.7612192e-10 
-3.1111419e-11 -1.0387231e-09 -1.7320918e-10 
2.9815074e-02 8.3847055e-03 2.6117463e-02 
-2.0552964e-09 -3.1551689e-10 2.1958944e-09 
1.2479316e-01 -1.7575096e-01 5.2734953e-03 
2.3997305e+04 -3.1360463e+04 -2.1921101e+03 
3.2481190e-02 -4.0621962e-02 5.5312067e-03 
1.5906663e-10 -6.2097782e-10 4.1082634e-11 
-1.8226925e-01 -3.6893699e-02 8.3612889e-02 
-1.4593110e-02 -6.7384481e-02 4.6826582e-03 
-2.1189197e+03 -2.7237741e+02 -4.2534678e+03 
-1.5422624e-10 -4.0521708e-11 7.7370457e-11 
7.5243878e+00 5.9895546e+01 1.2598540e+01 
1.6522355e-11 1.4937925e-10 6.4182482e-10 
6.1434668e-02 -6.9559000e-02 2.7499523e-02 
-7.4295707e-02 4.7591843e-02 -8.2581773e-02 
-5.3830401e-10 -5.1977134e-11 -9.4747550e-11 
1.2928637e-10 4.6315240e-11 -1.8134745e-10 
8.8989316e+03 -5.1894258e+03 7.5536554e+02 
1.0981499e-09 4.4047710e-10 -5.2818744e-10 
1.8387276e-03 4.2838645e-03 9.6477106e-02 
-1.5576027e-02 -1.5531906e-02 1.9147465e-03 
4.9993433e-02 -1.2737097e-01 1.6707106e-02 
4.1371297e-02 4.5534763e-02 -3.7796564e-02 
3.9037779e-02 3.3113509e-02 -2.0470411e-01 
6.6410516e-11 6.0841374e-11 1.5505874e-10 
1.9594328e-02 -2.1176903e-02 2.7648894e-02 
2.5430515e-01 -3.9393169e-01 3.6976494e-02 
2.8835222e-02 3.9187819e-02 2.9617980e-02 
-1.2281143e-01 -2.6650906e-02 5.8763586e-02 
3.1779241e-02 3.4424938e-02 -1.7282271e-01 
-2.0197162e+04 6.6568617e+04 -1.0899328e+04 
3.7691608e-02 -6.6008739e-02 -6.4877681e-02 
7.9595092e-10 3.2402300e-10 1.1145541e-09 
1.9916095e-10 -1.2908222e-10 -1.6899442e-10 
-5.5146620e-02 -3.0444017e-01 4.1172527e-02 
1.1345352e-09 -1.3404067e-09 -3.9718265e-10 
-9.3888062e-01 4.7430629e-01 -5.7341826e-01 
2.2233705e-10 5.0404780e-10 -3.6651260e-10 
8.2636793e-11 -8.8140870e-11 -1.8365438e-10 
-4.2273207e-10 -1.3451984e-09 -9.7406583e-10 
5.2796848e-02 -7.3501788e-02 2.4303906e-03 
-8.0188908e-02 -3.1533528e-02 -1.2883838e-01 
3.4692192e-03 8.7765651e-03 1.1351604e-01 
6.8834305e-10 2.9191685e-10 1.3468900e-09 
9.0582330e+02 -2.3395134e+03 -9.9546881e+02 
-1.6447859e+01 1.4550677e+01 -1.0372968e+01 
-1.7147798e-02 6.7442111e-03 3.1904459e-02 
-7.4444413e-02 -9.4202086e-02 -9.1873847e-02 
4.8946180e-10 -1.6454572e-10 -1.3088393e-10 
8.3401813e-10 4.2719228e-10 -5.1230487e-10 
2.8143356e-02 2.2388652e-02 -2.1305186e-01 
2.0566383e-01 -3.3228236e-01 3.4161229e-02 
-1.8100104e+00 -4.2698896e-01 -9.6689290e-01 
2.3903804e-01 -3.0677330e-01 1.3702936e-02 
4.2654297e-10 3.5601308e-10 2.3035118e-10 
6.1034515e+02 1.3283981e+03 8.8140289e+02 
2.6668416e-02 -2.2388667e-02 3.3123225e-02 
-9.2045587e-01 -1.2893264e+00 1.5266442e+00 
-1.4678555e-02 -3.2827687e-02 4.1403245e-02 
-7.5846851e+03 5.0657500e+03 -3.1439116e+03 
-1.2348996e-02 -8.1384163e-03 6.4931987e-03 
8.9640521e-02 -1.7425638e-01 2.0717498e-02 
1.3967000e-01 3.0483913e-01 -1.2320288e-01 
1.4634613e+04 -1.7861719e+03 -9.2480908e+03 
-5.5523794e-02 2.3101505e-02 1.5492667e-01 
8.0230206e+02 2.4771971e+02 -2.6710413e+03 
-3.3768513e-10 -1.7494126e-10 -1.0999973e-10 
-2.4031432e+04 -2.3858525e+04 6.6762280e+03 
-6.2313497e-01 7.8158396e-01 6.8130814e-02 
3.4600367e-10 2.6486906e-11 -3.5331260e-10 
-5.3376608e-02 1.0846585e-01 -8.1851959e-02 
4.9276702e-02 2.5824051e-02 3.4416664e-02 
-2.9363822e-02 2.6218661e-03 7.5449429e-02 
7.5738513e-12 7.4425488e-10 -5.5553676e-11 
2.5466284e-01 7.0168138e-01 3.4569365e-01 
5.7049759e-10 -5.3575389e-10 -4.4667672e-10 
2.5345581e-02 2.5728537e-02 -1.1736599e-01 
3.5578564e-11 -1.1467470e-11 4.2644582e-11 
2.1560199e-10 1.2785641e-09 -6.0500660e-10 
1.6573229e-01 -1.8545353e-01 1.9350601e-02 
5.4460231e-02 -5.0919723e-02 5.7973401e-03 
6.7468425e-10 -7.9348456e-10 -1.5100864e-10 
-2.4987439e+04 4.5641777e+04 4.0495239e+03 
-6.4236222e-10 3.0026850e-10 -1.4485688e-10 
4.5054138e-02 -6.3796394e-02 -6.7836709e-02 
-2.4617782e-02 -2.2195640e-03 -5.5191475e-03 
4.8630022e-10 4.0062961e-10 -3.6616080e-10 
2.5167167e-01 9.0044665e-01 1.2348379e-01 
-1.1686065e+01 -3.0617969e+00 -3.0833290e+00 
-1.5752713e-10 1.9960679e-10 4.6402512e-10 
1.5014675e-01 8.6978602e-01 1.6624583e-01 
-6.1693811e-10 -8.0450480e-10 3.9478373e-10 
-2.1259905e-10 1.0380731e-12 3.8912007e-10 
-3.4142575e-01 -1.8936038e-01 2.6763784e-02 
3.4856126e-02 -2.8998241e-02 3.9508265e-02 
5.4897619e-12 -4.8521909e-10 -5.4261408e-11 
5.3603108e-11 -2.3062190e-10 5.5305788e-10 
1.9458464e-09 -1.4141480e-09 -9.9444453e-11 
-4.6028991e+00 1.3869123e+01 -3.8754504e+00 
-2.1365745e-10 1.0344591e-10 -4.3698944e-10 
-3.2870581e-11 3.4402692e-10 1.1119296e-10 
2.0058464e-01 -2.5009391e-01 1.4595275e-02 
6.6751070e-02 -1.1313888e-01 1.9004215e-02 
-3.4555420e+03 -6.4127427e+03 -1.8619347e+03 
-3.2186112e-10 -1.2746609e-10 1.5398331e-10 
1.3160544e+04 1.1580260e+04 1.0604502e+04 
-1.3542635e-10 -3.2699823e-10 3.1181807e-10 
3.0500186e-03 2.3961497e-02 -2.3711923e-01 
1.0227433e-09 -4.7354820e-10 -6.3403299e-10 
1.4499326e-02 -9.8670378e-02 1.7553391e-01 
3.9065614e-02 3.2226335e-02 -1.6162366e-01 
9.6977465e-02 -9.2885166e-02 6.9492352e-03 
1.3101106e+03 -2.7208376e+03 1.1940162e+03 
-3.4399197e+03 -3.1824105e+04 -9.1119147e+02 
3.8847372e-01 2.6303917e-01 -6.3159522e-03 
-1.5004734e-11 2.2968491e-12 -1.2262740e-11 
-5.1843703e-01 4.6233338e-01 3.4771553e-01 
1.3603778e-10 2.5958116e-10 2.6974750e-10 
-2.2489940e-01 1.1892319e-01 1.3993414e-01 
-3.9145337e-10 -9.3878044e-11 2.7491237e-10 
-2.5531346e-02 6.5848805e-02 -9.5866015e-03 
1.6485418e-01 -2.1804242e-01 6.9978805e-03 
4.8426799e-02 -3.1545792e-02 5.0524749e-02 
4.8798211e-02 -6.0100563e-02 -6.8552300e-02 
-5.5794858e-11 -6.7891354e-10 -5.8002544e-11 
7.4196880e+03 2.4600996e+03 6.8253479e+02 
1.3110385e-09 -9.7589610e-11 -1.5475420e-09 
5.8652250e-11 1.1876955e-09 -7.6733930e-10 
-6.4009205e-03 -1.1893335e-01 -1.4356776e-01 
-3.5301237e+00 -1.9582142e+00 -6.1625981e-01 
-2.9545791e+00 7.7385366e-01 -1.1395882e-01 
2.0580792e-01 -2.6428592e-01 5.4461691e-03 
1.5202842e-10 -7.9327445e-10 2.4487297e-09 
-7.1468487e-10 -3.4601821e-10 -1.3903917e-09 
5.7382560e-10 -2.1310319e-10 2.6536201e-10 
-5.0937621e-10 -2.9952707e-10 1.0427570e-09 
-8.0877295e+00 3.0190814e+00 -4.5539670e+00 
3.8944603e-10 3.8689843e-11 -1.2987541e-09 
-3.0752952e-11 8.7248646e-11 -1.3554134e-10 
2.2290370e-01 -1.7833270e-01 2.7866738e-02 
1.2749189e+03 -2.2353633e+03 -5.3886243e+02 
3.2004334e-02 3.2997933e-01 -1.4089739e-02 
-5.7887364e-02 -1.6477374e-02 -2.2006159e-01 
1.2518719e-01 -9.6372284e-02 5.6431773e-03 
-2.4286212e-10 -1.3135663e-10 5.2688198e-10 
-1.2151392e-09 -7.8297382e-11 -5.3063631e-10 
3.9761427e-10 -3.7762735e-10 6.3796673e-10 
1.3288691e-09 1.2833629e-09 -7.3850692e-10 
4.9189985e-10 1.0929460e-09 2.9066843e-10 
2.8929964e-02 1.3709194e-02 -1.5340264e-01 
-1.0857140e+01 9.0749969e+00 6.7245846e+00 
1.1158377e-01 -1.4221464e-01 1.3372330e-02 
-4.6884555e+04 -1.1901091e+04 2.3593125e+04 
3.2994771e+03 -4.7089194e+03 -2.3042097e+03 
5.5505496e-02 -3.9565910e-02 5.2343618e-02 
1.1399059e+05 -3.3906045e+03 -3.5221457e+04 
-1.6831667e-09 1.6193338e-09 -6.0410682e-10 
-8.0154598e-11 1.0061380e-09 6.8396656e-11 
1.7387382e-10 1.0071670e-10 1.5417313e-11 
8.4881430e-10 1.3266499e-09 -1.3521025e-09 
-1.5513266e-10 -1.9395482e-10 -6.4051842e-10 
4.1301507e-11 -1.0190907e-09 5.1690341e-10 
-8.9045865e-10 2.8463271e-10 -6.9333450e-10 
-2.7362287e-01 2.0745501e-01 -5.9420520e-01 
-1.3834482e-10 -3.3432068e-10 1.6326628e-10 
5.1686350e-10 -2.2763140e-10 4.9812426e-10 
-4.1274900e-10 -2.2098387e-10 4.8813803e-10 
4.5202088e-01 -4.3084359e-01 1.6673594e-03 
1.0679070e-01 -9.2830725e-02 1.2621888e-02 
7.8322815e-10 1.3091465e-10 9.6179420e-10 
9.1864273e-11 2.0224954e-10 3.5736001e-11 
5.3334400e-02 -5.4715183e-02 -6.8648472e-02 
5.2028652e+03 -9.7231885e+03 4.5077983e+03 
-1.3972600e-09 -1.2009898e-09 -1.3879612e-09 
9.0157809e-10 -2.1380411e-10 -9.0456292e-10 
7.4746311e-02 -3.8500011e-02 8.1812255e-02 
-8.0122113e-02 -6.1324216e-02 -2.3428370e-01 
-6.5200534e-10 -6.7909256e-10 -8.2224283e-11 
3.5375294e-10 3.1188133e-10 7.8005644e-11 
6.5082839e-10 -1.1593356e-09 1.6897346e-11 
-6.6564664e-11 -2.8136202e-10 -1.0555789e-10 
1.7471842e-10 5.9344096e-10 2.3957855e-11 
-6.8663392e-10 2.1106503e-10 -4.1779355e-10 
2.3031822e-10 1.2261385e-11 -7.5963685e-10 
-6.2343446e-13 -1.1774370e-10 9.1529401e-10 
4.0860149e-01 -3.2381582e-01 6.0035135e-03 
-2.3578400e-10 -5.0784255e-10 -1.3602294e-09 
2.5299972e-02 2.5087187e-02 -1.6357253e-01 
9.2384264e-02 -8.4751046e-01 2.4402212e-02 
1.0795566e-01 -1.0504726e-01 3.5111476e-02 
-8.8840771e+03 -3.7842746e+04 1.4848078e+04 
1.4877507e+04 5.3922102e+04 -9.7601689e+03 
6.7377992e-02 -1.0295837e-01 1.0976925e-02 
1.2663537e-10 -1.8626441e-10 -8.5761565e-10 
-3.0843461e+00 -1.8495804e+00 8.0543560e-01 
-3.8850278e+03 -3.7375322e+03 -1.3121952e+03 
2.7915949e-01 2.5316042e+01 6.4258790e+00 
-1.0965987e+04 -2.5578572e+03 -5.0010249e+03 
-2.1526991e-09 -1.2802164e-09 4.4589071e-10 
-3.6853608e+03 5.0599380e+03 4.6758779e+03 
1.1183909e-01 -4.4846572e-02 1.0697010e-01 
-5.4791249e-02 -1.4514655e-02 -4.4589983e-03 
1.8836406e-01 -3.2455030e-01 2.3773648e-01 
5.5089361e-10 -2.1095783e-11 -8.7262009e-10 
1.6680948e-09 -9.3570729e-10 6.7402600e-10 
-4.5570817e-10 -2.8758496e-10 -1.7689389e-09 
2.9209528e-09 6.4664030e-10 5.7818816e-10 
1.0844298e-10 -5.2286699e-11 3.6743917e-11 
2.5539806e-01 -2.3300992e-01 -1.2876320e-03 
8.4634937e-02 -6.0535390e-02 2.8241225e-02 
2.5348287e-10 -1.0688672e-09 3.4956230e-10 
3.6203304e-10 5.2668453e-10 2.8316466e-10 
5.1589888e-02 -5.0002370e-02 -6.5048769e-02 
-5.6129856e-10 -1.1451207e-09 5.6955102e-10 
1.4523656e-09 1.2823234e-09 -1.4444601e-10 
2.3447081e-01 5.9639376e-02 8.1890211e-02 
-1.1549512e-09 -8.2228130e-10 1.9780066e-11 
2.0123213e-04 -3.8457355e-03 -1.1359100e-01 
-9.0429408e-10 1.0876992e-09 -1.3473658e-10 
1.0592120e-11 -1.5137750e-11 8.5426610e-11 
-4.2629783e-10 -6.5353412e-10 2.5781956e-13 
1.4313412e-09 -1.5525117e-09 -4.0762393e-10 
2.7561073e-10 2.0034578e-09 1.0376726e-09 
6.4128309e-01 -7.5296126e-02 4.1180842e-02 
-4.9266675e-01 1.7445384e+00 -7.2828420e-02 
1.0197023e-09 -9.7050334e-10 -3.6736988e-10 
1.3150375e-01 -1.2336451e-01 -3.9705583e-03 
-9.9294961e-11 -1.2151984e-10 -2.4611441e-10 
-3.9121567e-10 -3.5751085e-10 4.1094658e-10 
1.4634938e+00 3.8003296e-01 7.8095937e-01 
2.1511962e+00 -1.3633854e+00 1.2770714e+00 
-1.2782212e-09 1.8875570e-09 -3.6230963e-10 
-1.2898037e-09 -1.3416128e-09 1.7510503e-09 
-3.2250574e-11 2.6892766e-10 -2.0857518e-10 
7.6612382e+00 -7.7724462e+00 5.5836564e-01 
1.3543092e-09 -7.8786011e-10 1.2170180e-09 
1.0514967e-09 3.1057992e-10 -1.5229711e-10 
3.8927042e-10 4.7772220e-10 3.3697131e-10 
1.0617376e+01 -9.4312658e+00 8.8494778e+00 
5.5743055e-10 1.0217033e-09 1.6976891e-09 
6.6950645e+03 1.5576923e+04 -3.9527517e+03 
8.8999441e-10 -1.1902995e-10 -2.6614602e-10 
7.1072598e-10 -1.0227194e-09 1.9009359e-09 
-6.7654282e+03 1.1625211e+04 -5.3909575e+03 
3.7404507e+02 -5.9225283e+03 -3.8629761e+01 
-2.9887009e+03 8.7761016e+03 -7.5566650e+02 
-2.1596835e-10 -4.7150428e-10 3.4277602e-11 
-4.4813111e-02 -4.8941825e-02 -1.9315371e-01 
-1.2547063e+03 -2.2623523e+03 -1.1362843e+03 
1.1387927e-10 9.6079165e-11 -1.4878558e-10 
-3.3949971e-11 -3.3481506e-10 -4.6461592e-11 
-4.5441143e+03 -6.6661475e+03 2.7366511e+03 
5.5029038e-02 -4.9368393e-02 -6.9623969e-02 
-5.8789622e-02 -5.6968298e-02 6.1117742e-02 
8.5676438e-11 -3.0584676e-10 -5.8637895e-10 
-2.7534949e+03 1.1710429e+04 -9.5241553e+03 
-7.7396221e-11 -1.2751089e-10 -1.7135389e-10 
-1.9226652e-12 2.3321983e-10 2.1087812e-10 
3.6441240e-01 -3.5046811e+00 -4.1844502e-01 
6.3208330e-01 -3.6073625e-01 -7.2657406e-02 
-1.9701256e-09 -7.3356909e-10 -1.2365852e-09 
2.8820529e-10 -1.0645101e-09 -6.3554373e-10 
-4.3532551e+04 -3.9138611e+03 1.2441264e+04 
7.9820536e-02 -7.1867213e-02 1.0048579e-02 
-1.0329111e-09 1.1283440e-09 -1.4004780e-09 
1.3454809e+01 -8.4218512e+00 1.0048301e+00 
4.9271087e-10 -7.2053402e-10 3.5795983e-10 
1.1511480e-09 -5.9049982e-10 8.1006257e-10 
1.1081079e-09 -5.6291349e-10 -1.2388629e-09 
1.7394961e-09 -4.3667682e-12 2.9476524e-10 
9.4687702e-11 1.7734484e-09 -3.7615178e-10 
-1.1155102e-09 4.8951615e-10 6.4590022e-10 
-2.2317129e-11 -6.1435967e-10 -3.3593575e-10 
-7.3019479e-10 -3.0359773e-10 1.5639297e-10 
-1.2495123e-09 -1.3276509e-10 -2.2056055e-09 
1.2924108e-09 6.1392635e-10 1.0064336e-10 
-5.9593253e-02 -5.4813650e-02 -2.3212366e-01 
5.5867100e-01 -5.3861868e-01 5.2063722e-02 
-2.7717778e-10 1.4701564e-10 -3.3335210e-10 
2.0565072e-11 1.8146239e-10 3.2658309e-10 
-6.2738083e-02 -4.3812301e-02 2.2746278e-03 
2.3250177e-10 -1.0070637e-09 4.0424167e-10 
1.3385733e-10 5.0983334e-10 1.0563996e-09 
1.9629620e-10 2.5662283e-10 -3.3694766e-10 
1.8941197e-10 -4.4019680e-10 -2.6013319e-10 
-9.4053776e-10 -8.9996904e-10 -2.2157559e-10 
1.0590688e-10 4.0331372e-10 3.4232617e-10 
1.1101753e-09 -9.5603703e-10 1.0655622e-09 
-2.2434595e+00 -2.2532925e-01 -7.8762805e-01 
4.8444272e+02 1.4324117e+03 -1.4474939e+03 
-5.0020755e-11 1.8570520e-10 3.0888733e-10 
-7.1416377e+03 -1.1548253e+04 5.0975879e+03 
1.9539882e-10 -6.9331701e-10 -4.8905729e-10 
5.0185516e-02 -4.7172211e-02 -6.3908398e-02 
-1.7537851e-09 3.3713693e-10 7.1235372e-11 
2.8853248e-10 -3.2552352e-10 1.1399671e-10 
-1.4294121e-01 -1.3482415e-02 -1.0218093e-02 
1.7145763e-09 -2.7115965e-09 -5.3547261e-10 
-2.1120547e-10 -2.0575008e-10 -4.1836182e-10 
-3.4432648e-11 -4.5173121e-10 8.1136259e-10 
-2.8185176e-10 6.4334033e-10 -6.2202310e-10 
-2.4567842e-10 4.3137824e-10 5.7470462e-11 
1.6212988e-01 -1.4131317e-01 2.1307332e-02 
4.1161016e-10 -2.8144487e-10 4.1357182e-10 
1.6752150e-10 2.0612069e-10 -1.2501209e-09 
-1.2906863e-01 -1.5949415e-02 -2.2296005e-01 
1.4517525e-10 3.8822759e-10 -1.1586147e-10 
-7.5231850e-02 -7.6900005e-02 -1.9633211e-01 
4.4627266e-10 -1.9591301e-10 6.4339828e-10 
-5.1703647e+03 1.5112245e+04 2.0346895e+03 
-1.0397436e-09 4.5865672e-10 1.3328934e-09 
8.4961671e-10 -1.0850713e-09 6.5543587e-10 
-3.1729525e-10 -7.5236828e-10 2.5149824e-10 
7.5944047e+00 1.0026687e+01 -5.8948150e+00 
4.5972323e-10 4.4019474e-10 6.4419964e-10 
-4.0670461e-10 1.3388510e-10 -1.3289433e-09 
7.6251167e+03 1.6596484e+03 -1.7647243e+01 
-9.7246648e-11 -1.5243162e-09 3.4748804e-10 
-1.3867348e-09 -6.5763389e-10 7.4600109e-10 
-6.6446258e-11 -2.5401833e-10 -2.2314395e-10 
-6.0333222e-01 -4.2076993e-01 1.6134266e-02 
-4.2792578e-10 -4.3280015e-11 -7.1341288e-10 
-2.4859548e-10 3.8631039e-11 -2.7335220e-10 
-9.8868198e-11 4.6567300e-10 9.7498620e-10 
-5.6438876e-10 -1.0568402e-09 3.2004502e-10 
6.5310000e-11 -1.4480253e-10 1.2358212e-09 
-5.8879292e-01 -6.4932072e-01 -6.3775128e-01 
-2.8021582e-10 1.8790466e-10 7.5439222e-10 
1.5149385e-01 -1.0983317e-01 1.8756850e-02 
5.1073862e-10 1.7044656e-10 1.5865481e-10 
-2.3151672e-10 2.1184468e-10 -5.9202676e-10 
2.9834490e-10 3.4723121e-12 -8.8693569e-10 
4.6421167e-02 -6.1365120e-02 -6.5879278e-02 
1.6096093e-09 -3.4280241e-09 -2.1293754e-10 
5.6862776e-10 1.4218366e-09 5.2309934e-11 
8.1645947e-11 1.3937144e-09 3.2221731e-10 
3.5900796e-10 -6.4576766e-10 -3.9757556e-10 
2.1276576e-09 -8.2059298e-10 -2.2383287e-10 
2.3277512e+00 -1.8533957e+00 5.3769392e-01 
3.0534994e-10 5.8691907e-10 -9.0520458e-10 
2.9867650e-10 1.0837024e-09 -1.9654083e-09 
-9.2085137e+03 -9.8545410e+03 2.5837344e+03 
-1.5736160e-10 1.1557604e-09 -4.7959814e-10 
-5.5215349e-10 -6.2160926e-10 -5.3641325e-10 
-1.0842526e-09 2.8783942e-10 9.9599981e-11 
-2.7500799e-01 8.3571100e-01 1.3837335e+00 
-1.3341083e-11 -4.0244565e-11 2.2313000e-09 
2.3434998e-10 1.3493871e-10 -1.4876937e-09 
6.8809303e-10 7.4375539e-10 -2.1123785e-10 
-4.4481543e-10 -8.4934221e-10 6.1109268e-10 
1.8873224e-10 -2.1594862e-10 -8.8778779e-10 
2.9998756e-10 3.2464095e-10 1.8554559e-10 
7.6039709e-11 2.1313840e-10 -3.1234715e-10 
-1.3828041e-10 5.4281785e-10 -2.1022800e-10 
6.2886074e-10 1.1633838e-09 -1.6911175e-10 
1.9908658e-10 -1.3880004e-10 3.1663258e-10 
4.0352523e-01 -2.1709153e-01 4.1528353e-03 
-6.1291305e-10 -7.6149109e-10 2.8458974e-10 
-1.4913514e+04 -1.7474779e+04 1.1465681e+04 
-1.9963062e-10 -4.1742255e-11 -4.9679411e-10 
-4.3285063e-01 -3.9269364e-01 -7.1231437e-01 
6.9999330e-02 -7.8043364e-02 -8.0029711e-02 
-5.7010124e-10 -1.7463797e-09 7.1486100e-10 
1.1836638e-09 1.5957650e-09 -7.8618589e-10 
-9.0557936e-11 -6.0134439e-11 -4.0173611e-11 
4.4622864e-10 8.4046053e-10 7.2122551e-11 
5.4977739e+03 -9.3144619e+03 2.7182938e+02 
9.9643755e-01 4.9326539e+00 6.6205149e+00 
-3.5505323e+00 -2.3574271e+00 -2.6899692e-02 
-4.0132252e-11 -1.6678443e-10 -9.8747133e-10 
1.7396275e-10 1.0237295e-10 1.1095464e-10 
-4.4375811e-10 4.0997244e-10 1.0847528e-09 
5.4615791e-11 -2.2835482e-11 1.0232932e-10 
1.2392556e+03 -2.3863254e+03 -3.9399768e+02 
-8.0629037e-10 -2.1202139e-10 -5.9318117e-10 
2.0863315e-10 -6.5184624e-10 -2.9100869e-10 
-2.0590872e-10 5.0721233e-10 -3.0109862e-10 
-3.9234799e-10 1.6068475e-09 1.1217692e-09 
-8.0896445e-10 -1.4491108e-11 -3.9520898e-10 
1.0966907e-09 -1.0240884e-09 -1.0951397e-10 
-1.9426831e-10 5.9863481e-10 -5.0512683e-10 
-2.8005950e-10 -1.1820892e-09 1.2855830e-09 
1.1953290e-10 2.0786602e-11 -1.9836580e-10 
1.2899765e-09 -1.0297082e-09 -9.6385999e-10 
-6.4969174e-10 -6.8996187e-10 6.5463290e-10 
2.4321659e-10 4.5570542e-10 -9.4847041e-10 
-1.4385571e-11 -3.3562719e-10 -1.0014300e-09 
-9.0577018e-11 -2.9465243e-11 -2.3820163e-10 
5.7851512e-10 1.3765084e-10 1.3371966e-09 
-7.1540979e-10 -6.7172179e-10 -7.2066619e-10 
1.3359689e-11 -2.6909475e-10 2.6415989e-10 
-7.0376011e-10 3.2109132e-10 7.0821343e-10 
1.4694316e+03 1.6383514e+03 -6.9646758e+03 
3.9939910e-01 -2.2336313e-01 3.9656941e-02 
3.7856758e+03 -4.4213350e+03 2.1336648e+03 
-1.6457566e-10 -5.6703257e-11 2.6521774e-10 
-8.4433599e-11 -6.9276723e-11 6.5965490e-11 
9.7635493e-02 -9.1520123e-02 -9.7339466e-02 
6.7039468e-10 6.2264927e-10 1.5219964e-10 
-4.9059229e-10 1.0796416e-09 1.6283378e-09 
-1.1589691e-09 3.0781613e-10 -2.8810526e-10 
-4.9204302e-10 -5.6179794e-10 9.7419006e-10 
2.4012534e-10 -1.7003653e-10 1.3379911e-09 
3.1763447e-10 1.6080460e-11 -1.6343528e-10 
-5.5495681e-11 -8.0948200e-11 -2.1002061e-10 
-1.4181724e-10 -2.2544737e-09 -5.2051374e-11 
2.5886868e-10 -3.8396525e-10 -5.6862165e-10 
-6.7822241e-11 -4.7372095e-10 7.0239525e-10 
1.8984450e-09 -4.5907167e-10 1.0598863e-09 
1.0859651e-10 4.9528864e-10 -3.8588888e-10 
1.5362689e+00 -8.1281173e-01 -2.4225822e-01 
1.2791472e-10 -1.5319983e-09 1.0280421e-09 
3.7789641e-10 5.5597527e-12 7.0870865e-10 
-2.9773361e-11 -9.2040081e-10 3.1418113e-10 
-2.1127891e-09 -2.8328133e-09 -5.9239225e-10 
2.5353133e-10 7.5775976e-11 2.5796767e-11 
6.2477373e-10 7.5640216e-10 -1.5178186e-09 
4.7707926e-10 -4.4639262e-10 2.0765901e-11 
-2.3966173e-10 8.2269483e-11 3.3272821e-10 
-1.0680572e-10 1.0242771e-10 -1.6729358e-10 
1.7104171e-09 -1.9846371e-09 7.9320389e-10 
1.3369921e-01 -9.6857168e-02 -1.4643767e-01 
6.2278416e-10 -1.0638693e-10 -1.1461424e-09 
4.8852321e-11 7.2634060e-10 -1.7549622e-09 
-2.1166001e-10 -4.0000270e-10 3.4342756e-10 
-2.3943458e-11 1.2989564e-10 -4.6670508e-11 
5.1033350e-10 9.4398225e-11 -8.6517871e-10 
-6.5008608e+03 8.5603936e+03 -9.0063593e+02 
5.6309074e-10 -3.6844097e-10 -2.9900146e-10 
-1.0879754e-09 1.1166312e-09 2.7567755e-09 
7.2455292e-10 -4.1353718e-10 -5.7853911e-10 
5.1430572e-11 -1.9198186e-10 1.6221940e-10 
1.0592663e+00 -3.7269846e-01 1.1548812e-01 
-3.1866097e-11 3.2859709e-10 1.0351956e-09 
8.8354456e-11 3.6216768e-10 3.7180779e-11 
-1.5114188e-09 -3.9057924e-10 -9.1643998e-10 
4.7627313e-10 -1.1609337e-10 2.7882696e-11 
2.2673213e-10 5.3869820e-10 5.2628729e-10 
1.7496440e-10 3.3670098e-11 2.2413614e-10 
-6.9278944e-11 -1.0583884e-10 -6.2601632e-11 
1.0400326e-10 -1.6432938e-10 2.3649796e-10 
7.7317657e+00 -7.6213536e+00 -9.3477988e-01 
4.9951331e-11 6.3593747e-10 -8.9061886e-10 
-1.6908877e-10 -4.0000628e-11 2.9316610e-10 
3.8774234e-11 9.5220026e-11 -6.1608540e-10 
-1.1009607e-09 1.5881459e-09 1.3030559e-09 
2.8412911e-10 -5.1693666e-10 -1.1966249e-10 
-2.1879051e-10 -6.3162274e-11 -1.3646202e-10 
2.3392271e-01 -2.7898732e-01 -2.3427512e-01 
-7.1190512e-11 -5.4414240e-10 -1.1697072e-10 
7.7934220e-10 4.6010490e-10 -4.2890483e-10 
-3.0436938e+03 -5.1662051e+03 -1.6304620e+03 
-5.2968196e-10 9.6464670e-10 3.5189827e-11 
-5.3412073e-11 -6.3332214e-11 8.9483691e-11 
1.2339920e-09 -1.4378573e-09 9.3216557e-10 
1.6657536e-10 -4.8642208e-11 3.0074165e-10 
-2.4871236e-10 5.2898336e-10 -8.6272167e-10 
-7.6970674e-10 -9.6188935e-10 -9.2408831e-10 
-5.8052802e-11 9.2664244e-12 2.7836039e-10 
3.3827979e-10 9.0269972e-11 -2.4991650e-10 
-2.2913100e-11 4.5243462e-11 -1.4725331e-09 
-1.3852533e-10 6.8320682e-11 2.3084992e-10 
1.1492841e-09 4.3309487e-10 -1.5064180e-09 
-1.7231938e-10 5.2960233e-11 -5.5784521e-10 
-2.7975375e-10 5.8528715e-10 -2.7976133e-10 
-4.7852500e-10 1.4875555e-09 -1.0496418e-10 
7.2017759e-01 -3.1368577e-01 -4.5260888e-01 
-4.3662463e-10 3.7934508e-10 -3.6808137e-10 
-2.6229663e-10 4.4206683e-10 5.0692084e-10 
1.3848095e-10 -8.0277042e-11 -5.2705573e-10 
-1.4380683e-10 2.1592313e-11 -1.6591850e-10 
4.6476362e-10 6.5141831e-10 -3.1352720e-10 
-1.9478691e-10 -5.4925309e-10 2.1235533e-10 
8.2333355e-11 1.7971286e-10 3.7117677e-11 
-1.6881087e-10 -7.2738197e-11 1.3259448e-10 
1.1389377e-10 -1.7835028e-10 -9.7835982e-11 
-1.0925050e-10 -6.0250732e-10 -4.6823900e-10 
3.7032907e-10 2.1605757e-10 -4.8260990e-10 
-2.3050283e-10 -5.9040539e-10 4.1785478e-10 
-9.4832509e-10 -4.5084578e-10 -1.7360906e-09 
1.9923961e+00 -2.5741640e-01 -1.3648802e+00 
-4.8634451e-11 -7.1079906e-11 -6.9129272e-11 
5.4201300e-11 4.7608850e-10 -6.3895822e-10 
-5.3207294e-10 -3.5129255e-09 -4.2006476e-10 
1.1423939e-10 1.6643441e-10 -1.2442042e-10 
5.7451186e-11 -4.0923015e-10 1.6444601e-10 
9.6584629e-10 -1.9706022e-10 -1.8170986e-10 
-8.1113721e-10 4.0492751e-10 -1.4613147e-10 
-4.3255154e-13 1.7675243e-11 -1.4229434e-10 
6.2251926e-10 -1.2380975e-09 -6.1141547e-10 
7.7686885e-10 -5.7828392e-10 6.6303102e-10 
-1.2407377e-09 4.5266959e-09 1.8272718e-10 
1.4603474e+01 -8.1277008e+00 -8.5807514e+00 
9.3052316e-11 1.5499780e-09 -3.1149347e-10 
-1.1310757e-09 4.3025605e-10 1.2925270e-09 
1.0465072e-09 -4.1484230e-10 1.6175047e-09 
-1.7310637e-09 1.3874208e-09 -1.8750775e-10 
1.4083910e-09 -1.6375078e-09 -8.3716656e-10 
-5.5032466e+03 1.1297265e+04 2.7468728e+03 
-1.1193075e+03 -2.0232715e+03 1.0834098e+03 
-1.3773099e-10 8.5686541e-11 2.7581756e-10 
2.9038635e-10 8.2128127e-10 -1.5070415e-09 
-2.0199981e-10 -8.2776636e-10 8.8425406e-11 
1.8764386e-10 -6.1510887e-11 2.6675040e-10 
1.2883129e-12 -2.4082134e-10 -2.4238525e-10 
-6.1026090e-10 -4.7490822e-10 1.1821469e-10 
2.1373181e-10 2.4355779e-10 -1.1679886e-09 
9.7461636e-11 -4.0343667e-10 -6.2287014e-10 
-7.5991274e-10 1.5424937e-09 9.8337138e-10 
-8.0057350e-11 -2.6565636e-10 2.0862459e-11 
1.4182003e-12 -1.2306750e-10 1.3871600e-10 
-4.5027562e-11 -2.2031267e-10 -1.2261627e-09 
-1.6458310e-10 5.9281702e-10 5.6977384e-10 
1.4193365e-10 3.3748321e-10 1.6241102e-11 
-4.0692333e-10 5.5162402e-11 4.1601448e-11 
3.2599320e-12 5.3480928e-11 -7.0132339e-10 
6.4794442e-10 4.4149084e-11 -2.5834649e-11 
-1.6323014e-10 8.2478185e-10 -7.5643714e-10 
9.4230368e-10 9.8110711e-09 -1.7408019e-10 
7.1315875e-10 -4.8163362e-11 1.9831679e-10 
-1.0322254e-09 3.3257297e-09 1.7589918e-09 
-5.8941359e-11 -6.2831540e-10 -4.0881260e-11 
-2.3277023e-10 2.0895544e-11 -3.2917857e-10 
-1.8951805e-09 -4.5448771e-12 -1.0205018e-09 
9.4649510e-10 -8.7337304e-10 -7.7217099e-10 
1.6181028e-09 -2.8504010e-10 -9.0323582e-10 
-5.6206706e-10 5.4563981e-10 -1.3618899e-11 
-5.3802456e-11 2.3929436e-10 -1.7598917e-11 
-5.5640670e-10 -5.2705934e-10 2.3999669e-10 
-2.2020978e-10 -4.7872939e-10 -6.3906808e-10 
-2.2026879e-11 5.9039489e-11 -1.3515648e-10 
2.0726978e-10 -1.2409992e-09 -5.6146532e-10 
-8.7267560e-10 -8.6830060e-10 1.0065628e-09 
-1.8244194e-10 -2.0222586e-10 -1.1209100e-10 
-1.0693949e-09 3.7260176e-10 1.0461242e-09 
5.2224480e-10 5.3794774e-10 -1.0826482e-10 
1.7111304e-11 -1.2280134e-10 4.4722717e-10 
3.9229733e-10 -9.7019948e-11 1.9484543e-09 
-7.7764253e-11 -1.7799191e-10 2.3679625e-10 
-1.1295090e-09 -8.8583896e-10 5.2520122e-10 
-6.8793798e-10 7.4730216e-10 -3.4629280e-10 
-7.9883733e-10 5.5026766e-10 1.0216303e-09 
-1.7837611e-10 2.5821836e-10 1.1514417e-09 
6.3809014e-10 1.2872723e-09 -1.6150594e-09 
-4.9937502e-12 3.0430092e-10 -1.6398913e-10 
1.3071564e-09 -4.7868454e-10 1.4121764e-09 
-2.0621633e-09 2.1609063e-10 4.5720253e-10 
1.1596574e-11 1.6806911e-10 1.9282632e-10 
3.0786848e-10 2.1167863e-11 9.8342257e-10 
5.3122828e-10 1.4675264e-09 8.7713686e-10 
-3.8167239e-10 -2.7705238e-10 -5.8621735e-10 
3.5332229e-10 5.5467869e-10 -7.6748580e-10 
5.9277991e-12 4.3221555e-11 -4.2454417e-12 
2.1077640e-10 -5.5234206e-11 2.2465925e-10 
-5.9915389e-10 -5.9391997e-10 -3.0227827e-09 
-5.9035965e-10 -5.7944954e-10 -8.2097146e-10 
4.1897011e-10 3.7178746e-10 3.6960998e-10 
-1.2440370e-10 3.0396241e-11 -4.1484167e-11 
8.2797727e-11 -7.5605089e-10 9.1290925e-10 
2.8167961e-09 -4.8987936e-10 1.1938056e-09 
2.1474548e-11 5.5890393e-11 5.8468209e-11 
9.5665802e-11 6.3570038e-10 3.1266600e-09 
-9.9716868e-10 2.5031883e-09 1.3301972e-10 
-7.9975027e-11 -1.8482349e-10 2.1998049e-10 
7.7256601e-10 4.5839962e-10 1.5091998e-09 
5.3488369e-10 4.3965281e-10 -6.8727940e-10 
7.3467576e-10 1.5495558e-09 -1.3194701e-09 
-1.9597186e-10 5.1993049e-11 -7.7418566e-10 
8.1371632e-11 5.3570540e-11 3.3759642e-10 
1.5144722e-10 -3.1817698e-10 3.3948558e-10 
1.5397769e-10 6.0640692e-10 2.7623007e-10 
-4.8392240e-10 -1.3663054e-10 -6.0002248e-10 
5.3559451e-10 6.1888525e-09 8.8185736e-11 
-1.1460530e-09 -3.2563113e-10 -1.7465761e-10 
-4.3541587e-10 1.1775024e-09 5.9924543e-10 
-1.7253955e-10 2.0343262e-10 9.2360569e-10 
4.9149258e-11 -1.3220190e-09 -5.5217836e-10 
-6.4338873e-10 -1.8254520e-10 -1.7226012e-10 
4.5552873e-10 5.1627674e-10 1.5782442e-10 
-2.5056382e-10 2.7915578e-10 -2.2611704e-10 
-3.4341968e-10 -9.8616348e-10 4.6983739e-10 
-4.2215644e-11 -3.1353223e-10 -1.0798538e-09 
3.6498057e-10 -1.3332775e-09 8.9340524e-10 
5.9643245e-12 -7.5817086e-10 -7.5554840e-10 
4.9558768e-10 -1.9103506e-10 -3.6948600e-10 
6.9275052e-10 6.3292066e-10 -5.5280935e-10 
-3.0008807e-10 -3.2948735e-09 1.4163827e-09 
-2.5971685e-09 -7.8047929e-10 -7.0114126e-10 
-8.5886565e-10 4.5152412e-10 -2.6415510e-11 
3.4010253e-10 -1.6110944e-09 -1.8647940e-10 
7.9007156e-10 -9.7059405e-10 5.1430799e-10 
-1.4038744e-10 1.0031789e-10 2.5043803e-10 
8.3060329e-11 -2.1541019e-11 1.7738645e-10 
-6.3115524e-10 -3.6688939e-09 1.5746390e-09 
7.4201556e-10 1.6014691e-10 9.7165731e-10 
-6.9300871e-12 -5.2105009e-10 -1.9212631e-10 
3.9600290e-10 3.9148067e-11 2.0701289e-10 
2.7353936e-10 -5.5594980e-11 2.9568067e-10 
-3.3704739e-10 3.0575914e-10 7.1696010e-10 
-2.9296409e-11 -8.0339457e-11 -2.5210075e-11 
-2.1984779e-10 -2.9202252e-10 3.4859426e-10 
-1.8682269e-09 -6.8059336e-10 -4.2543280e-10 
-7.1592771e-10 1.8840922e-09 -1.9115001e-09 
-3.1930272e-10 -3.5277190e-10 7.2494437e-12 
1.4484930e-10 5.8243560e-10 2.8709576e-10 
5.5050842e-10 -4.4417439e-10 7.5040896e-10 
7.2268282e-11 -4.2864434e-10 1.0460325e-09 
-1.1550400e-09 5.6898219e-10 5.4272448e-10 
5.7911120e-10 -1.2798616e-09 6.7142000e-11 
9.8665714e-11 -2.2468269e-10 2.2272882e-10 
3.0660113e-10 -1.6065420e-11 1.6738460e-09 
-8.3842450e-10 -1.8489663e-09 7.0587515e-11 
1.7913866e-10 -3.3169029e-10 -4.2766412e-11 
-2.9117805e-10 -5.2452070e-10 -9.9687247e-10 
2.0060059e-10 8.2783112e-12 2.3713745e-10 
-1.1261105e-09 4.0355670e-09 -9.0288121e-10 
5.9623306e-10 -1.7568207e-10 6.4240460e-11 
-2.1883832e-10 1.7033586e-10 -1.0723351e-10 
-3.5028269e-10 1.6733920e-11 -2.6754666e-11 
5.7927707e-10 -2.7404037e-10 -8.8101824e-11 
-5.5934896e-10 -3.7459072e-10 -1.7219765e-09 
-2.0495139e-10 1.1563846e-10 9.2526575e-10 
2.4434285e-10 -6.0965044e-10 1.0143532e-10 
6.0201877e-10 9.5227742e-11 -4.1522459e-11 
4.8254822e-10 3.0903871e-10 7.1029826e-10 
-1.3355538e-10 -8.7025921e-11 -4.3463400e-11 
2.7324359e-10 4.4264278e-10 -1.2378515e-09 
7.3376555e-10 -4.5287138e-10 -1.1847752e-10 
9.7914532e-10 1.3784852e-10 1.0382379e-09 
-2.7817970e-10 5.2612920e-10 -5.5077887e-10 
6.7805417e-10 -2.9420681e-09 -9.7898334e-10 
7.7636131e-10 -5.0745219e-10 -1.1168582e-09 
-7.6734330e-10 1.1856073e-09 3.1343367e-10 
-8.8837195e-11 -6.8665171e-11 4.0425680e-11 
-3.2811007e-10 1.9785439e-11 1.0809949e-10 
1.0255672e-09 -7.9787349e-10 -1.2730816e-09 
3.2697378e-10 2.7375879e-10 -6.1083118e-11 
-5.6232775e-11 -4.7142970e-11 -1.2076928e-10 
2.3843949e-10 -8.5711571e-10 1.5646921e-10 
-2.5969460e-09 1.7676832e-10 8.5077251e-10 
-3.0588182e-10 6.0752889e-11 2.7655461e-10 
-3.8549219e-10 3.8348871e-10 2.6419628e-10 
-1.5958369e-10 4.2270401e-10 -2.0586177e-10 
-3.5862260e-10 4.2331325e-10 3.0724721e-11 
-3.3172964e-11 5.3397103e-11 -3.0228095e-10 
-6.2886341e-10 -4.9867405e-10 1.9298407e-10 
9.8519415e-11 2.2829205e-10 -5.2561738e-10 
-1.1926178e-09 6.4035899e-10 -1.1802267e-09 
-4.1503251e-10 6.2412331e-10 8.3004520e-10 
4.4213982e-10 1.5600087e-10 -6.5463956e-10 
2.8558228e-10 9.4693871e-11 -3.1824154e-10 
9.6917141e-11 -9.2287573e-11 7.5650909e-11 
-2.0044140e-10 -9.4662989e-10 -2.8312785e-10 
1.3370820e-09 1.0619008e-10 2.7375704e-09 
-2.2798800e-10 -8.4864027e-10 -4.2434758e-10 
7.2549527e-10 1.1182177e-09 -2.4453179e-09 
2.3460955e-10 -8.7988977e-10 3.6128514e-10 
-2.7844002e-10 -1.5294047e-09 5.5284305e-10 
5.8659516e-10 8.5958790e-10 -3.4872660e-11 
8.9579507e-12 -3.0076183e-10 -3.5209555e-10 
1.1057117e-09 -2.9099623e-10 -1.5437461e-10 
-2.9261676e-10 2.1204405e-10 -1.7293562e-09 
2.6931762e-10 -1.9970370e-09 -9.4669739e-10 
-6.2386313e-10 -1.2714748e-11 2.5237987e-10 
-1.7461840e-10 1.4711142e-09 4.1593134e-10 
-4.7605353e-10 -7.8955048e-10 -6.5181716e-10 
8.3583529e-10 -4.7987812e-11 -2.5490329e-10 
3.4883926e-10 1.0122063e-10 -2.4118985e-10 
2.4230634e-10 -1.5193660e-10 2.8330252e-10 
1.5779156e-11 -8.2318603e-11 2.3039570e-10 
3.0234870e-10 5.7846888e-10 2.6050298e-10 
1.5527781e-09 2.6057570e-10 5.6308713e-10 
-1.7422845e-10 -2.4429181e-10 2.3335572e-10 
-4.6813559e-10 5.2714495e-09 -1.5305919e-09 
4.3830653e-10 -6.3087396e-10 -3.9281051e-10 
1.3494643e-10 -7.0253170e-10 1.9756137e-10 
-1.7884536e-10 -4.3319938e-11 1.7495455e-10 
2.5476676e-11 1.7393491e-10 -1.4103124e-09 
-2.3778671e-10 6.7752838e-11 -1.6512089e-11 
1.8794477e-09 -1.3699775e-09 1.0435841e-10 
-2.3206687e-10 2.4108981e-10 -3.3195358e-10 
2.3739658e-11 -1.4383553e-10 2.3437430e-10 
4.9255588e-10 -2.5603542e-10 1.0519011e-10 
5.7743127e-10 -7.1311196e-10 1.4999778e-09 
-5.0114501e-10 8.6222934e-10 3.3309350e-10 
-6.7062078e-11 -6.8489592e-10 -1.2221247e-09 
-1.1384453e-09 1.9806889e-09 8.4214791e-10 
2.5127167e-10 -2.5343119e-10 1.9871958e-10 
1.2048069e-10 3.4462069e-09 1.4071451e-09 
3.7713022e-10 5.5844995e-10 2.9672116e-09 
1.9828081e-09 1.8294405e-09 1.4240209e-10 
-3.9474612e-10 3.4642073e-10 3.4838082e-10 
-2.8512256e-10 2.3812202e-10 -1.0867623e-10 
-2.3879956e-10 4.6091178e-10 -2.2934699e-10 
2.3024552e-10 -3.8401901e-10 3.2240498e-11 
-1.6043299e-11 1.6195158e-11 -0.0000000e+00 
-2.2095636e-11 1.7610255e-11 -3.9229031e-10 
1.1417430e-09 -1.0614035e-09 4.1524728e-10 
-7.2139889e-10 4.8533777e-10 -1.2743536e-09 
-5.5824056e-10 5.9218380e-10 5.8597277e-10 
-1.7324503e-09 -1.4730703e-09 7.4648976e-10 
3.8918532e-10 2.5240917e-11 4.0099729e-10 
1.9045843e-10 1.4239409e-09 -1.1264898e-09 
-2.0275660e-10 3.3763600e-10 -6.4286097e-11 
7.1212314e-10 1.4831111e-10 -4.5989355e-11 
2.6924057e-10 2.4795593e-10 1.8650757e-10 
-5.1628979e-10 -1.0804713e-09 -3.2781761e-10 
-6.1478006e-10 6.2581806e-10 -2.2561829e-10 
5.8059786e-11 2.4844782e-10 1.0336677e-09 
-3.8934345e-10 -5.8267235e-10 -1.5018955e-12 
-8.8015054e-11 -4.6939164e-10 -1.6889082e-10 
-3.8628548e-10 7.9333116e-11 2.2651282e-10 
-4.1527039e-11 -5.3719102e-11 8.6631521e-11 
7.0269196e-10 2.2503039e-09 5.9304656e-10 
-2.8873942e-10 6.1922584e-10 2.1923569e-10 
5.3296823e-10 5.4942467e-10 4.8390691e-11 
-3.2568739e-11 4.0542672e-10 -4.7024884e-10 
-8.1915102e-10 -9.2001523e-10 5.7102478e-10 
-2.1003703e-09 -4.7015575e-10 5.9919969e-10 
-9.9530544e-11 -1.2085311e-09 1.5636353e-09 
1.6022103e-10 -1.5258125e-09 -2.4241012e-10 
-6.5745777e-11 8.0028449e-12 -3.2106937e-10 
3.2259545e-10 -7.8969199e-11 -7.2771173e-12 
1.1707339e-10 -3.2943373e-10 5.1710988e-12 
2.2707032e-10 -4.5503357e-10 2.0032555e-10 
-2.5504657e-10 -3.6229608e-10 7.0885964e-11 
-1.0152117e-10 2.0776630e-10 -4.1902234e-10 
1.2240797e-09 1.6726724e-09 1.0245818e-09 
-1.0387019e-10 -1.2076394e-09 -4.1923748e-10 
-5.4751786e-10 -2.3306718e-10 6.2212585e-10 
-3.6896649e-11 -2.8344862e-09 -7.6276298e-11 
-1.7748814e-09 -1.6607308e-09 -1.6496775e-09 
-5.6153270e-11 -1.4602871e-11 5.6311518e-11 
-1.9226945e-10 -8.4573198e-10 1.5265077e-09 
3.6635420e-11 1.5609587e-10 -7.6606100e-12 
-6.0882294e-10 -8.9830848e-10 -8.8137952e-10 
-5.9328070e-10 -1.3007909e-09 4.6868076e-10 
-1.0931607e-09 1.4947652e-09 5.8345073e-10 
1.5306985e-10 -1.0083693e-10 1.1706719e-10 
-2.9990052e-11 1.8695992e-10 -7.2541265e-11 
-1.0558320e-09 4.5041090e-10 5.5953719e-10 
2.9394178e-11 3.4250378e-10 -9.5886354e-11 
5.6140537e-10 -6.8490086e-10 -3.4828085e-10 
-3.5548984e-11 -3.2173184e-10 -1.8746332e-10 
-1.2319269e-09 -2.2800925e-10 -1.3128357e-09 
7.2414164e-10 3.5590772e-10 1.2870872e-10 
5.9955180e-11 1.0696918e-10 -1.9557087e-10 
-7.1457801e-10 -7.7574014e-10 7.1605388e-10 
2.7962238e-10 -6.4990119e-10 3.8008229e-11 
3.6266448e-11 -7.1250694e-10 -6.7774494e-11 
2.7311107e-11 1.4339983e-10 2.6745028e-10 
-8.8707519e-10 -5.8662963e-11 -7.5496598e-10 
2.3962637e-10 6.9867753e-12 8.3076698e-11 
9.0369337e-11 1.4992529e-09 2.3620197e-10 
-3.3298875e-10 -1.5374581e-10 -1.7095184e-10 
7.7042056e-10 -2.7090943e-10 8.6818697e-10 
2.5888672e-10 1.7672819e-10 8.5504148e-10 
9.7422159e-10 6.9152273e-10 -5.1372501e-10 
-5.0873389e-10 3.0465280e-11 2.1967902e-10 
3.2162384e-10 -4.8260351e-10 3.1059572e-10 
-2.0801473e-10 -1.0762421e-10 8.4804566e-11 
2.8308933e-10 8.7679969e-10 -8.9973209e-11 
1.0247470e-09 -3.1192376e-10 5.8833760e-10 
-5.0866567e-10 2.8169841e-10 -2.9317335e-10 
4.4638282e-10 3.0452679e-11 -4.0101236e-10 
1.4877975e-10 -9.4490171e-10 -2.6760447e-10 
9.1288399e-10 2.4465645e-09 -1.4962606e-09 
-1.7509807e-10 -7.7378842e-10 -7.3235074e-10 
1.0271480e-09 -7.2948403e-10 -1.3024931e-09 
-5.0074878e-10 -7.5549972e-10 9.9806863e-10 
-4.5466636e-10 -1.1982475e-10 1.3852618e-10 
-8.3758089e-10 8.5217466e-10 3.4004807e-10 
9.7198312e-11 -1.0076472e-09 -1.3554178e-09 
-6.6137901e-10 4.1278075e-10 -5.7428745e-10 
-1.8444299e-09 1.4964430e-09 2.6200797e-10 
-2.1715645e-10 -4.8577248e-10 3.4014078e-10 
-2.0746765e-10 9.6102099e-11 9.1436574e-11 
-6.0197805e-11 -2.8725280e-10 6.3385290e-11 
7.4763265e-11 -1.3075299e-09 5.0911081e-10 
9.1011798e-10 1.5391652e-10 -5.9237293e-10 
2.2702938e-10 3.3682265e-10 4.5909110e-11 
-4.2452758e-10 -2.3634214e-10 -1.2309913e-09 
2.4059940e-10 1.4170204e-10 1.0891375e-10 
-1.2449829e-10 7.9347423e-10 -5.4404381e-10 
9.3306485e-10 -5.9182970e-10 8.8254387e-10 
-2.0852048e-10 -1.2196224e-09 -6.7359263e-10 
1.7481347e-10 8.7551986e-11 -2.2613615e-10 
7.3696188e-11 1.4201396e-10 8.0317412e-11 
1.4017337e-10 -2.8270758e-10 -1.8151972e-10 
-1.4629060e-10 1.0649138e-09 2.5015995e-10 
4.9422488e-10 5.4774633e-11 5.1329729e-10 
6.5245492e-10 9.3083506e-11 1.3183749e-10 
9.4117869e-10 7.0726841e-10 9.2796215e-10 
1.2797300e-09 1.7088362e-09 3.6624151e-10 
1.5056315e-10 -2.8544886e-10 -2.3064187e-10 
3.2654038e-10 1.4469417e-10 -1.1715133e-10 
3.6976588e-10 1.1077852e-09 7.0857126e-10 
-6.0825711e-10 1.0509934e-09 5.6242655e-10 
2.8333330e-10 1.1393370e-10 -1.4672100e-10 
-1.7138800e-10 -3.8212644e-10 8.0294160e-10 
-5.6172161e-11 6.8514541e-11 -6.9613837e-10 
1.7226366e-10 -3.2436798e-10 2.0357512e-10 
-2.3369165e-10 -1.8352157e-10 -4.3798554e-10 
-1.9343917e-10 1.2509359e-09 4.3487772e-11 
-1.2904741e-10 -2.1702862e-10 6.4112576e-10 
4.3217702e-10 5.8940192e-10 -1.6912449e-09 
7.0924666e-10 -6.0391914e-10 2.6295255e-09 
2.0649132e-10 -3.9651591e-11 -5.3625702e-12 
3.5317405e-10 8.4338847e-10 -6.2892930e-10 
-1.7533346e-09 -1.3089135e-10 -3.3437283e-10 
-4.7722837e-10 7.9058460e-10 -6.8496486e-10 
7.7212836e-10 2.3748895e-10 4.3807011e-09 
-1.1739604e-10 -5.2964636e-11 1.2858832e-10 
1.7056149e-09 1.7916645e-09 -1.0820846e-10 
-7.6985274e-10 -1.4972746e-09 2.6924965e-10 
-2.7925945e-10 4.9772253e-10 4.9658799e-10 
1.9655770e-09 6.8020273e-10 -2.4993134e-09 
-8.2776092e-11 3.0097008e-11 5.8675226e-12 
8.1556256e-10 2.1593936e-10 -1.7300821e-09 
-3.8558987e-10 4.3971135e-10 -6.5798944e-10 
6.9257716e-10 -7.4237300e-10 1.2304777e-10 
2.5444449e-10 5.2181132e-10 3.0732222e-10 
1.3718332e-09 1.2395540e-10 -1.4123525e-10 
-1.6279590e-10 -1.5554447e-11 -1.7859051e-11 
-4.0430181e-10 9.0039048e-10 -5.5034987e-11 
-2.2090704e-10 -1.9846529e-10 -4.8127009e-11 
2.2416632e-10 -1.5015629e-10 -1.8495557e-09 
5.9556965e-10 -4.1971324e-10 5.2711063e-10 
-8.9754576e-10 -5.0769144e-10 -4.2926268e-10 
2.5158314e-10 -1.0533886e-10 -3.9436396e-10 
-4.8324213e-11 3.0558905e-10 -4.8387419e-11 
-1.1556387e-10 -4.7532461e-10 -2.2902981e-10 
3.7925895e-11 3.3299286e-10 5.4889444e-11 
-3.6970028e-11 7.9745954e-10 1.9950783e-09 
-3.8921885e-10 -2.6594410e-10 4.0533740e-10 
1.3652000e-10 4.3639181e-10 -1.2381973e-10 
5.5935367e-10 1.0693825e-10 -7.5577905e-11 
2.3137516e-10 -1.2098317e-09 7.5018952e-10 
-4.9355124e-11 5.5598798e-10 1.2459234e-10 
4.7900039e-10 2.4092967e-10 -1.6607685e-09 
-1.0780948e-09 -5.7044869e-11 -2.8530800e-10 
-6.1995568e-11 1.6789868e-10 4.4343701e-10 
-4.4482318e-10 1.6462486e-10 1.4266317e-10 
-2.7283928e-09 -1.2264157e-09 -1.1537610e-09 
7.4894618e-10 -8.6364621e-10 4.8480936e-10 
-3.5641246e-10 -6.8062993e-11 -5.4528576e-10 
-5.3251947e-10 2.7649974e-10 5.2133670e-10 
2.1243450e-10 1.7584691e-10 2.4281608e-11 
1.4381382e-10 -1.0538386e-10 2.3317823e-10 
5.4481186e-10 -7.9549256e-10 -6.4701439e-11 
8.4895524e-10 -2.2266590e-10 2.4887629e-12 
1.4327841e-09 4.3634041e-10 -8.5288610e-10 
4.2669354e-10 -7.7819828e-10 2.0075021e-10 
5.4282456e-10 -4.7334792e-10 1.5935664e-10 
-3.1115153e-09 -1.4708930e-10 2.7857630e-09 
7.1157408e-10 1.4993419e-10 3.5049127e-10 
-3.9844541e-11 -8.4431506e-10 -2.4713005e-09 
1.0677854e-09 9.9356345e-10 -7.5317369e-10 
-1.3213824e-09 1.2294910e-09 -2.3132371e-10 
1.1832545e-09 -5.7370962e-11 -1.5847219e-10 
6.7134014e-11 1.6294570e-10 -1.5293719e-10 
1.0958789e-10 -8.9559193e-11 2.4522323e-10 
8.2845120e-11 -1.6189659e-10 1.6634150e-10 
-4.1963161e-10 3.1091071e-10 3.2657793e-10 
1.8030907e-10 4.1375772e-10 7.2267851e-11 
1.9719679e-10 -2.4034660e-10 -2.1726600e-10 
-2.2896526e-10 2.0581063e-11 5.5300520e-10 
4.7658727e-10 -1.4887225e-09 -2.5808281e-10 
-2.0438913e-10 -1.4691578e-11 3.2557816e-13 
6.1709887e-11 4.4485818e-10 5.1152532e-10 
-1.1995680e-09 3.1244782e-10 -3.0441566e-10 
-5.6089117e-10 6.2910777e-10 7.5318229e-10 
3.8691314e-10 -1.8467186e-10 4.7250776e-10 
1.4111786e-11 -3.3736081e-10 3.7455902e-10 
-7.5952616e-10 -1.4545294e-10 -1.5977265e-09 
-1.8276960e-09 2.2088516e-12 8.8114027e-10 
-2.2213685e-10 -4.2231563e-10 -5.3422183e-10 
3.2836658e-10 7.3667175e-12 -5.2516486e-10 
-1.0110600e-09 -1.1191847e-09 4.6871929e-10 
-1.9419050e-10 8.1859707e-11 1.5479405e-10 
-3.9308909e-10 6.9599902e-11 -6.5246036e-10 
-1.2200934e-09 7.0923545e-10 7.9206974e-10 
-1.5530102e-10 1.3712234e-09 -4.0995349e-10 
8.6502316e-10 -2.3023766e-10 -3.2362741e-11 
-2.3103655e-09 -5.0084731e-10 -2.5455202e-10 
-1.5586140e-11 -4.0765506e-11 3.3846856e-11 
-9.2765512e-10 -1.2258718e-09 -2.8982217e-10 
-5.4407306e-10 -4.6348106e-10 -4.1183723e-10 
-1.2544192e-09 -4.2308895e-10 -1.3269073e-10 
-5.7792637e-10 -6.8759409e-10 -2.3669979e-11 
-6.9447607e-11 1.9538955e-10 -3.6258375e-11 
2.2765084e-10 5.3400967e-10 1.8052104e-10 
1.9503985e-10 6.7948613e-10 3.3209144e-10 
4.8098882e-12 2.9345523e-10 5.1963667e-10 
9.5032826e-10 -1.0028394e-09 7.3877016e-10 
-3.6137640e-10 2.9466457e-10 -1.2544034e-10 
-2.3894366e-09 -1.4631666e-09 1.0403162e-09 
-1.5456823e-10 2.7438229e-10 1.2402755e-10 
-7.4559409e-10 -4.9769668e-11 -1.7388889e-10 
1.7629068e-09 1.9065463e-09 4.7056380e-11 
2.6258237e-10 1.0505191e-09 -6.0387112e-10 
-9.6289046e-11 2.1326077e-10 2.3677419e-11 
2.3578788e-09 1.8903315e-10 -9.4392971e-10 
1.6147349e-10 5.9390236e-11 -1.6182686e-10 
-1.0751157e-09 -2.9997296e-10 6.1323308e-11 
6.7699457e-10 2.6782102e-10 -1.5068444e-09 
9.4629027e-10 1.9963777e-09 -6.9394890e-10 
-1.0387503e-10 -4.5430745e-10 -5.2794813e-10 
1.0168324e-09 9.8611141e-10 5.1735943e-10 
3.7639229e-11 -3.4877375e-11 -6.8381828e-12 
2.3517366e-10 1.3380649e-09 -4.9793425e-10 
8.5614613e-11 1.5308553e-09 5.0378751e-10 
-8.8770789e-11 -2.8162892e-09 1.4090218e-09 
-9.6232002e-11 -1.1172693e-10 -3.4208833e-10 
1.2389580e-09 -2.5207253e-10 7.1652861e-10 
-5.2370063e-11 -2.2700952e-10 3.2642228e-10 
9.1718043e-11 1.0973542e-09 -2.9817263e-10 
1.1313217e-09 -4.9484604e-11 6.8106648e-10 
-1.5316106e-09 1.1078883e-10 7.6722134e-10 
1.3472792e-10 3.1239245e-10 3.7444206e-10 
2.1834683e-10 -9.5174271e-11 -1.1774194e-11 
4.1329370e-10 -2.7016850e-10 -5.3841687e-10 
-6.1482222e-11 -2.4239261e-10 3.6953712e-10 
-6.6203124e-12 -2.9821526e-10 -6.7522482e-10 
8.8727567e-11 -2.3440042e-10 -3.9306700e-10 
1.5659271e-10 -1.1023871e-10 9.0570454e-11 
1.5434838e-10 -7.9434470e-10 -1.8465336e-10 
-3.0468905e-09 -1.4386666e-09 -7.2378348e-10 
3.9234907e-11 2.1805860e-10 5.9347938e-10 
-3.3008024e-10 1.2210225e-09 -1.3103076e-09 
-1.4832215e-09 -4.4567416e-10 8.9935331e-10 
4.7215631e-10 4.8964854e-10 3.0411929e-10 
-7.1678047e-10 -4.5832246e-10 -6.5879813e-10 
-1.1034369e-10 -7.0806744e-10 4.3353388e-10 
-3.6468945e-10 -6.5030975e-10 -1.1503620e-10 
-1.7070825e-10 -1.7028106e-09 2.2003914e-11 
-6.2059113e-10 8.1473844e-10 2.6231484e-09 
3.7402556e-10 1.6124363e-10 -3.8987835e-10 
8.4681789e-11 -3.1853134e-10 9.1649355e-10 
-2.6519641e-11 -1.2802219e-10 -1.2310761e-10 
-8.5725321e-10 -1.2810746e-09 -6.8697720e-10 
-6.6501660e-10 -2.6487915e-10 4.2710790e-10 
6.7736611e-10 -5.5092642e-10 -3.8066800e-10 
-1.0719653e-09 2.4966220e-11 3.6791642e-10 
-1.0173519e-10 -6.0611155e-10 -8.1281162e-11 
3.4876310e-10 -4.2156681e-10 -5.9878241e-10 
5.1245902e-10 1.1192143e-09 -1.2162882e-10 
-3.2054137e-10 5.5225408e-11 6.0558819e-10 
8.7710977e-11 1.5245481e-10 -1.6349035e-10 
-1.9916468e-10 -1.3007931e-10 6.2846334e-10 
-3.1837347e-10 3.3813286e-10 1.7954931e-10 
-1.5998621e-09 2.8499206e-10 -2.9613721e-11 
-4.7077159e-10 3.9969925e-10 1.7008789e-10 
5.9871602e-10 -1.4718592e-10 -7.4759021e-10 
-4.5286000e-10 -2.3317687e-10 -4.7510851e-10 
1.1064036e-09 1.1389456e-11 3.9439454e-10 
-8.4941465e-10 5.4600607e-10 -2.7422682e-09 
3.9381765e-10 1.8770489e-10 -3.1511377e-10 
3.9337422e-10 5.7983224e-10 2.4998026e-10 
2.4906133e-10 -1.5347998e-10 -2.4525795e-10 
-1.0440261e-09 1.2942095e-09 7.1293854e-10 
-4.7185023e-10 4.9625909e-10 8.3958551e-10 
-1.8762534e-09 1.9106353e-10 1.0239513e-10 
-3.5908945e-09 -1.2274723e-09 4.9382065e-10 
2.2855200e-10 2.2525397e-10 2.5163777e-11 
-2.8553288e-10 1.6112657e-10 1.7040853e-09 
-1.4106041e-11 1.8745351e-10 -9.9731209e-11 
1.3397947e-09 -5.8033561e-10 -2.5214322e-10 
1.0549612e-09 6.3494898e-10 -4.5381240e-10 
5.4940125e-10 7.0215150e-10 5.0121635e-10 
-8.2401008e-10 6.3646910e-10 -1.5445388e-10 
5.9632910e-11 3.4167452e-10 4.0200457e-10 
4.1277751e-10 2.5496319e-10 3.4800696e-10 
9.1133406e-10 -4.3415704e-10 -3.1277902e-10 
-6.9360795e-10 1.4652008e-09 -2.2249168e-10 
1.7754388e-10 -1.2142851e-10 -6.1824261e-11 
-8.9214913e-10 2.0748645e-09 -4.5423437e-10 
1.0307184e-09 1.0536174e-09 -3.0247596e-10 
2.7321809e-10 1.4967590e-11 8.5183312e-11 
5.9681404e-10 1.1351147e-09 -1.5755598e-09 
-5.4302507e-10 1.9389017e-10 8.6348112e-10 
3.2379652e-10 -7.3668995e-11 -3.8802694e-10 
-1.2920710e-09 -9.0764274e-10 -2.8084798e-10 
-1.8561930e-10 -9.7614172e-10 6.2821770e-10 
-9.5985953e-10 1.1096739e-09 1.3263398e-09 
1.1164923e-09 -1.3333132e-09 -7.7155676e-10 
2.8995847e-10 5.9066273e-11 4.3796269e-11 
1.5716507e-10 -1.0730130e-09 1.7668015e-09 
8.1572138e-10 -5.7501492e-10 -4.7699411e-10 
1.2319860e-10 -5.7389915e-10 -1.3698085e-12 
-4.5876185e-14 -1.5937564e-11 1.8926156e-10 
3.8264195e-10 -4.5683154e-10 -1.2917047e-10 
2.7157523e-10 1.2975617e-09 1.4735742e-11 
-1.3386671e-10 4.8525706e-10 -5.5624050e-10 
-5.5658184e-10 -3.8360562e-10 1.0000498e-10 
-3.1510422e-10 3.4834852e-10 4.0987793e-11 
-1.5036962e-10 9.3054037e-10 6.6735312e-10 
1.2493842e-09 -2.2363149e-09 1.0465926e-09 
-2.8089919e-10 -1.1900632e-09 6.5205624e-10 
-1.6924169e-10 -6.3020711e-10 -3.1727152e-09 
6.5827838e-10 2.4928409e-10 -5.4730698e-10 
-6.7513928e-12 1.4114659e-10 5.9439266e-11 
-1.4617411e-09 -8.0214707e-10 -7.0911460e-10 
-2.5064164e-09 1.0086034e-09 5.2386084e-10 
1.2791387e-10 5.3614866e-11 1.3289016e-10 
2.1571750e-10 -7.4030082e-10 6.9779255e-10 
1.4805287e-09 -2.0351189e-10 -3.2554893e-11 
-1.1332957e-10 -2.5410241e-10 4.1567444e-11 
7.5690959e-10 3.9616055e-10 -4.7468644e-11 
-1.1839382e-10 -2.7945424e-10 -2.1012676e-10 
1.9481214e-10 5.6431698e-10 -1.0941913e-10 
2.1067281e-09 -1.1157105e-09 -9.6862185e-10 
-7.5943474e-10 2.6939170e-10 -3.1412173e-10 
1.3912450e-09 3.7926279e-10 5.4448258e-11 
4.4244633e-10 2.4211000e-10 1.7932492e-10 
-3.3307290e-10 4.9827070e-11 -2.5663954e-10 
6.0340177e-11 8.4231415e-12 -2.6929411e-10 
-9.9031672e-10 6.8670808e-10 -2.0613079e-12 
-2.4203579e-09 7.6644963e-10 1.2451238e-09 
7.1461531e-11 -1.9121076e-10 -5.0166005e-10 
-4.4740314e-10 -7.3725825e-10 -4.4512335e-10 
1.5601521e-10 -5.5749300e-10 -1.5166918e-09 
-6.1340361e-10 -4.6209665e-11 6.2305056e-10 
-8.4535923e-10 3.7204451e-10 -1.0356547e-10 
2.3273335e-10 -6.9936147e-11 -5.8126857e-11 
-1.7866536e-10 -3.4469053e-11 -5.3036364e-10 
1.3962743e-10 1.4334678e-09 -4.8393745e-10 
5.8409644e-10 -6.4154196e-11 1.2916146e-09 
1.0505989e-09 1.2706226e-09 -2.1990768e-10 
-6.8142669e-10 -9.3430241e-10 -1.0343374e-10 
1.0666683e-09 3.0162195e-10 1.1838126e-09 
-3.2451195e-10 -1.3749551e-10 -4.7983419e-11 
1.5345472e-09 2.0456917e-10 -7.7970658e-11 
-7.1286893e-10 4.0943299e-10 2.4903352e-10 
-1.6744653e-10 -4.0832381e-12 1.9289989e-10 
7.9263379e-10 -8.3992807e-10 5.5697524e-10 
-4.5386134e-10 -8.4045895e-11 1.6563471e-09 
-3.2828154e-10 2.6033331e-10 -2.0947379e-10 
-5.1135796e-10 -2.8644948e-10 -1.3074811e-09 
3.4018949e-10 -9.6616326e-11 3.3733932e-10 
1.0435159e-10 2.5587113e-12 5.3996418e-11 
1.4018221e-09 9.2502628e-10 7.6706830e-10 
-1.4886382e-10 2.8412322e-10 2.1298066e-10 
9.2911118e-10 -3.8413425e-10 5.6062560e-10 
-1.0660899e-09 2.4295235e-10 -1.2635706e-09 
-9.5578001e-10 -8.5112767e-10 5.3235607e-11 
6.8955230e-10 -2.8172389e-10 -2.0313436e-10 
2.3730331e-09 -6.7900618e-10 -8.0324508e-10 
4.9080823e-10 -1.9496462e-11 -1.1616681e-10 
3.4096240e-11 3.0249292e-10 3.7840420e-10 
1.2747119e-09 2.8459438e-10 2.8831287e-10 
4.9233040e-10 1.1099269e-11 -1.7745630e-10 
-7.8396867e-10 -6.8385458e-10 2.9706995e-09 
-5.4951527e-10 -3.5202766e-10 4.2246553e-10 
-1.1994339e-10 -4.6272408e-10 -4.0095618e-10 
4.6453372e-11 2.5912594e-10 -3.8984149e-10 
9.6635455e-10 1.2036542e-09 2.3930993e-09 
1.8443924e-09 4.2258788e-10 -3.8416773e-11 
6.3590749e-10 -3.1750461e-10 -3.5023712e-10 
-9.7780162e-10 4.7312448e-10 -1.4201420e-09 
6.3320199e-10 3.1429453e-10 -3.4247657e-10 
2.5216024e-10 1.0093802e-10 -1.4099401e-10 
4.1902534e-10 6.2860472e-10 6.7480921e-10 
1.7607223e-09 -1.3991442e-11 -1.5029684e-11 
-6.7658418e-10 3.7098538e-10 -1.7239232e-09 
-8.3156954e-10 -4.2417617e-10 -5.1904125e-10 
2.0218008e-10 -4.5808496e-11 -6.3158534e-11 
1.9950905e-10 -5.1432029e-11 -6.8046374e-11 
-6.5673786e-11 -5.3163340e-10 2.7266911e-10 
1.9463111e-09 -1.4122705e-09 -2.0946597e-11 
-8.9599084e-10 -7.5349760e-10 -1.5043905e-09 
1.7065478e-10 -1.0451896e-10 -4.8876972e-11 
4.2784601e-10 9.6123186e-11 1.1007284e-09 
-3.4491043e-09 -6.6084299e-10 1.4990164e-09 
2.3606601e-09 1.7105672e-09 -2.9541886e-10 
2.3181927e-09 3.4869307e-10 -1.3487286e-09 
-2.1598567e-11 -1.2492188e-09 -1.2413440e-10 
-3.0812835e-11 5.0614840e-10 1.7759770e-10 
5.1621596e-10 8.1662083e-10 1.5466559e-10 
1.6698247e-10 -9.8293464e-11 -1.3292378e-10 
8.9859670e-10 4.0435680e-10 3.8007089e-10 
3.3146253e-11 3.4322639e-10 -1.2833669e-10 
-4.1128992e-10 8.1777202e-10 2.6214172e-10 
-2.9800049e-10 -1.4971775e-09 2.7487948e-11 
3.6141212e-10 2.4547845e-11 -2.8210542e-10 
-5.6256438e-10 -4.5945248e-10 4.2853837e-10 
2.2868443e-10 1.1294725e-10 -6.8609840e-10 
-4.2198103e-10 -6.5193423e-10 6.4996236e-10 
-5.4322009e-11 -5.8537501e-11 -7.7177140e-11 
-3.1227748e-10 1.1683122e-09 -1.6302354e-09 
3.2665312e-10 2.8113353e-10 -6.4547911e-10 
-3.6380773e-10 -2.5565647e-09 7.7028478e-10 
-1.5253411e-11 -2.4567276e-10 1.1508240e-10 
-6.6008848e-10 -2.7296818e-10 7.8779000e-10 
-2.4025364e-09 -3.6588210e-10 -6.1036959e-10 
3.4172884e-10 4.3386483e-10 6.6709788e-10 
9.3652708e-10 -9.6678121e-10 -1.2880657e-09 
-1.2918626e-09 1.1568962e-10 -1.3804731e-10 
3.1533460e-11 2.5165584e-10 -2.7983740e-10 
-9.1435338e-11 -4.9230381e-10 -9.8116827e-11 
2.3901414e-10 1.8530794e-10 1.9485846e-10 
5.6208183e-10 3.1597502e-11 -3.2630332e-10 
4.0561793e-10 -6.5498246e-10 -1.0908789e-09 
-4.0423709e-10 1.4170520e-10 4.6394485e-12 
-4.8174892e-10 2.1822717e-10 -1.9291986e-10 
-4.0067114e-10 -8.0166052e-10 -5.4120236e-10 
-1.5599745e-10 -1.1355804e-09 -5.5182092e-10 
4.5239817e-10 -5.8730565e-10 -3.8931003e-10 
2.3291802e-09 7.4874440e-11 -9.6942177e-10 
-1.1646607e-10 -1.7163218e-10 4.6424670e-10 
1.5435230e-09 6.8563732e-10 1.7042832e-09 
-4.8545551e-10 -5.4727806e-10 -3.0404929e-10 
2.6301764e-10 -6.1856720e-10 -3.5447431e-10 
3.2179959e-10 1.6495944e-10 6.1186378e-10 
-1.7143101e-09 -5.7481780e-10 6.3612310e-10 
3.2872194e-10 2.7266425e-10 1.7287599e-10 
-2.1291509e-09 1.3986279e-09 9.3468300e-10 
-2.0624966e-10 3.0486079e-11 -3.4257111e-10 
1.4482072e-10 2.8526362e-11 3.0298361e-11 
-2.7845046e-10 -6.5973271e-10 -1.4555641e-10 
-6.6029593e-10 1.5905326e-09 9.9816111e-10 
-7.0726347e-10 9.1734415e-10 5.2854165e-10 
-8.2643510e-11 5.5747740e-10 5.8883626e-10 
1.9365105e-11 -4.5338022e-11 2.2864875e-11 
4.6122040e-10 1.8806186e-10 -6.7181322e-10 
-1.3502977e-09 9.2158325e-10 -2.9758077e-10 
6.3593514e-10 1.9130775e-09 -1.4098556e-10 
-1.4394461e-09 -3.2518419e-11 2.3178499e-10 
-2.4522248e-10 5.2018900e-11 1.0985412e-11 
7.6533663e-10 -1.6077396e-09 -2.1852936e-10 
-1.0397361e-09 -1.7893978e-10 -9.3097402e-10 
2.3952404e-10 -7.0489267e-11 9.2203169e-11 
-7.7771845e-10 -4.8102405e-10 9.1132379e-11 
-6.8718621e-11 1.5538496e-09 8.7780944e-10 
-5.0683535e-10 2.6663871e-09 7.1632333e-10 
-8.1090995e-10 2.2629508e-10 -7.0865043e-11 
-6.7600293e-11 -5.9410443e-10 -2.2885314e-10 
-3.6166584e-10 1.9912740e-10 -3.5959718e-11 
1.8788514e-10 7.6047363e-11 1.9465865e-11 
6.2735567e-10 -4.9614574e-10 1.2095693e-09 
-4.2263533e-11 3.0669151e-10 3.7490330e-10 
1.1820159e-09 9.0158847e-10 8.1573942e-10 
-1.2278157e-09 -1.0827787e-10 3.3942815e-10 
-4.0368062e-10 -3.8084771e-10 -2.2681705e-10 
7.4398060e-10 -7.3831337e-11 3.4054373e-10 
-8.5128038e-10 -4.9079779e-10 8.5435214e-10 
-1.7225138e-09 -1.2957824e-09 4.2387821e-10 
-6.6229450e-10 1.4048468e-09 1.8718489e-10 
-2.6707681e-12 1.7227331e-12 -1.3622170e-10 
-2.7625036e-10 -2.2186493e-10 -2.8153513e-11 
-2.3690017e-10 -9.3612573e-10 -1.6561147e-10 
-4.2538813e-11 1.9649324e-10 -1.4107608e-10 
8.4739715e-10 1.0444542e-09 -8.1063994e-10 
-3.3023018e-10 8.9764413e-10 -1.5243603e-09 
3.2322436e-10 4.0508891e-11 2.7059674e-10 
8.5174773e-10 1.0135424e-10 -5.1864196e-10 
9.4063965e-11 -1.2712577e-10 1.6187217e-10 
2.5971963e-12 1.1432947e-10 2.7366487e-10 
-6.3088734e-10 -2.3525551e-10 2.5376687e-10 
1.2328537e-10 -6.2505716e-11 -4.0897258e-10 
8.2582791e-10 -6.3172600e-10 -1.0315465e-11 
3.3280153e-11 -3.0857750e-10 -1.8509677e-10 
5.7042016e-10 -7.5643303e-10 -7.4981021e-11 
9.2033803e-10 -5.4304694e-10 -1.2063577e-09 
6.4379585e-10 8.5446367e-10 -2.8593725e-10 
2.2351687e-09 -2.1530551e-10 -4.3564291e-10 
-7.3661816e-10 -6.1567536e-11 7.7250212e-10 
-5.7212579e-10 2.0626008e-10 -5.5869326e-10 
5.8570905e-11 1.6250000e-10 5.2830001e-10 
1.1146972e-10 -1.4920302e-10 1.0737214e-09 
5.4873101e-10 -6.7972816e-10 1.2869320e-09 
1.6022039e-10 -5.0473997e-10 4.7438463e-11 
7.7950008e-11 3.8758560e-10 7.3942241e-11 
8.7939689e-10 -4.9732246e-10 4.7893917e-10 
7.5822271e-10 -1.3207091e-10 -7.3859407e-10 
6.2670658e-10 -1.1302941e-10 -8.2201218e-11 
-2.8691516e-10 -8.2964725e-11 -3.2972355e-10 
-6.0697281e-10 3.5036626e-10 2.1357588e-10 
-2.1982507e-10 -4.9658821e-10 -4.3041984e-10 
-2.0470563e-10 2.1007645e-11 1.1293344e-11 
6.7333772e-10 -1.1186509e-09 -4.6798182e-10 
4.6242654e-10 -6.1835786e-10 1.3824467e-10 
4.8709342e-11 5.6365668e-10 -2.6938243e-11 
-7.3967932e-10 -7.7430223e-10 -4.3105722e-10 
-1.7860452e-10 7.4733553e-10 4.3055157e-10 
4.8979544e-12 1.6951114e-10 -1.8493039e-10 
-2.6302136e-11 -1.2056663e-10 3.9475151e-10 
-1.7604963e-09 3.1676173e-10 -1.4516175e-09 
1.5667383e-09 4.3935491e-10 1.1687630e-09 
-5.4936344e-10 -1.3507979e-09 -7.7728068e-10 
-1.2612213e-11 5.7676536e-10 -1.0230463e-10 
1.2350219e-10 1.7555640e-10 -3.1103276e-10 
7.3845269e-10 -1.6004902e-09 3.3355779e-10 
-6.9554501e-10 -1.2929607e-10 8.1806578e-10 
-1.1766877e-09 3.3093370e-10 -7.5626028e-10 
6.5495476e-10 1.7693703e-09 6.8715167e-10 
7.0222167e-10 1.0831788e-09 3.3863415e-10 
5.5131610e-10 -3.3890640e-10 7.6588430e-10 
9.1455282e-10 -1.7643369e-10 3.3941596e-11 
-3.4992850e-10 2.0877247e-10 -1.1490212e-10 
-4.4773112e-11 -6.7225997e-10 -8.6450742e-11 
6.9942951e-10 1.6637219e-10 5.9408617e-10 
-2.6695401e-10 -1.3227930e-09 4.8317339e-10 
5.0342241e-10 -1.1447300e-09 1.2057767e-09 
-5.8522848e-10 -5.1052294e-11 -9.0564534e-10 
3.1651007e-10 5.1316335e-10 -4.4808937e-10 
-2.2328503e-10 1.4494462e-09 -2.0523228e-09 
7.9438423e-10 -2.5042077e-10 -4.5074675e-10 
-3.7191422e-10 -5.2156690e-10 1.0486255e-09 
-1.7202598e-10 -1.5238743e-11 2.7524247e-10 
-2.6367108e-10 2.2734749e-10 2.5783667e-10 
1.4251382e-10 -3.3466893e-10 -9.4661168e-10 
3.4209147e-10 -1.4892042e-10 1.3142694e-10 
-1.2444106e-09 -1.0209537e-11 -8.9404872e-10 
-7.1539816e-11 -6.4049493e-10 -2.8289024e-10 
-5.6830418e-10 1.5449667e-10 -1.8645308e-10 
1.0488970e-11 -3.2038644e-10 1.3798457e-10 
-2.9547523e-10 1.8422925e-09 6.3484151e-10 
9.0249891e-10 8.7695051e-10 -1.8125023e-09 
1.9954363e-10 6.0855843e-10 4.3756115e-10 
2.5399316e-10 -1.7659764e-10 -1.9830065e-10 
4.2211468e-10 4.2075074e-10 -1.5608358e-10 
-5.5536131e-10 -1.0244918e-10 2.0792808e-12 
-2.0762984e-10 -4.0017343e-12 -2.4837232e-10 
-1.2421157e-09 1.0555422e-09 1.7413234e-09 
-6.1879202e-10 -3.6119291e-10 -4.6680598e-10 
4.3083181e-10 2.6585695e-11 3.1107872e-10 
-1.0720864e-09 6.1372457e-10 -2.8502523e-10 
1.4791931e-09 -8.6360402e-10 -2.2089282e-09 
6.8017603e-10 1.2493712e-09 -1.2821351e-09 
6.5830302e-10 -2.6613772e-10 4.1500964e-10 
2.1077820e-10 -2.7330219e-10 -2.3064536e-10 
-1.1026189e-10 1.1152033e-10 9.9643593e-10 
7.0149492e-10 -1.3512488e-10 1.8925717e-09 
-9.7386099e-10 -4.4478723e-10 4.8993515e-10 
-2.5788185e-10 2.3144107e-10 2.0102060e-10 
-1.4530123e-09 -1.0282880e-09 4.9365007e-10 
2.4168692e-10 7.1264078e-10 3.7581049e-10 
-5.9252392e-10 -4.3338214e-10 -5.3391130e-10 
-5.7608651e-10 -4.8545574e-11 -3.3885916e-10 
-2.7552310e-10 2.4164956e-10 -9.4087349e-11 
1.2259954e-10 7.7625077e-12 1.0228022e-10 
8.2729090e-10 -1.5951476e-10 -1.8360514e-10 
-9.0144070e-10 -1.8401817e-09 -4.3550813e-10 
1.3436617e-09 1.3249383e-09 8.4942908e-10 
2.0398287e-11 -1.2418265e-09 5.2850985e-10 
1.3013698e-10 4.0097220e-10 -3.4698069e-10 
-4.1631620e-10 1.3930011e-10 3.6332307e-10 
1.6233603e-09 -1.7705213e-09 -1.1375868e-09 
-8.4445839e-10 6.4396294e-11 2.5848509e-10 
1.6139888e-10 -6.7635220e-10 2.9702957e-10 
1.4667615e-09 -4.6161699e-10 4.7108956e-10 
2.6480892e-10 -9.4468922e-10 8.3661211e-10 
-7.4962252e-11 -2.0901397e-10 2.2440190e-10 
-4.2340834e-10 8.7520541e-10 -3.6106149e-09 
1.0074729e-09 8.6748769e-10 -4.5911314e-10 
3.0692909e-10 1.2034564e-09 6.7926359e-10 
-2.8337377e-10 2.3798215e-11 -2.8187744e-10 
-1.2818789e-10 2.2237419e-10 -2.2961169e-11 
-4.5739978e-10 -2.2068409e-09 -3.2874994e-10 
2.6474471e-12 -3.6537599e-11 -8.5772646e-11 
1.2908320e-09 9.6761721e-10 -1.3516241e-11 
-1.7559884e-11 6.1043298e-10 -8.1374285e-10 
-6.2648853e-10 2.5818039e-10 -5.4564386e-10 
-6.1960520e-11 -3.1995462e-10 -4.5425871e-10 
-1.9272216e-11 2.7900765e-10 1.9653934e-10 
3.4881692e-10 1.4771989e-10 6.8434364e-10 
-2.0900606e-11 -2.1053387e-10 5.2456536e-11 
-2.2156166e-10 -1.4933976e-10 2.3748874e-09 
-1.0178243e-09 -1.5652853e-09 -4.5247886e-10 
5.4793975e-10 1.4456528e-10 1.3698245e-09 
-1.3477634e-10 1.1325239e-09 -9.7883068e-10 
3.0960168e-10 8.7232660e-10 -5.3126070e-10 
-5.6954524e-10 -5.1609439e-10 8.1459017e-10 
5.6036642e-10 -2.3702001e-10 1.9854371e-10 
1.0929926e-09 5.7204175e-10 -8.5652052e-10 
1.1307628e-10 1.0001009e-11 -4.5154019e-10 
7.5583523e-10 -4.1836026e-10 -6.1983564e-11 
-2.7124535e-11 9.1413543e-11 -5.9843040e-11 
-6.2422201e-10 5.1763538e-10 9.3611285e-11 
-5.1154275e-11 3.7230916e-10 -2.8080999e-10 
5.1652110e-10 -1.3663332e-09 -2.3581012e-10 
1.3953300e-10 -8.2018720e-10 -3.1041103e-10 
1.9688806e-10 1.1163098e-10 -5.6180255e-10 
2.8090977e-10 8.1214292e-11 -4.1460854e-10 
-2.7466551e-10 -9.8226656e-11 1.6599396e-09 
3.0194147e-10 5.8813832e-10 -2.8060437e-10 
-3.8771075e-10 -7.1934164e-10 2.2700743e-10 
1.1264798e-09 -1.2708622e-10 -4.9906503e-11 
-1.7284872e-09 -3.9291298e-10 -5.3673088e-10 
-1.5424298e-10 -7.1379867e-11 -1.8235094e-10 
-1.8875130e-09 2.0828728e-09 1.8580022e-09 
-2.5570587e-10 -5.0976634e-10 1.2122046e-09 
1.2480007e-10 -5.2944371e-10 2.3084636e-10 
-2.6646357e-10 4.8020959e-10 -3.8382628e-10 
-3.5678241e-10 7.5105527e-10 -1.8774621e-10 
-1.3851481e-09 1.2100436e-09 3.1643788e-10 
8.9528190e-11 -2.1171549e-10 3.9435449e-10 
-2.5384689e-10 -4.8915638e-10 -1.0140335e-09 
4.3229015e-10 2.1276054e-09 8.4792284e-10 
5.0028182e-10 -3.5312139e-10 4.3528225e-10 
2.3007550e-10 8.3625232e-11 6.0285610e-10 
-1.0955808e-09 -4.4446211e-10 6.6002415e-10 
-3.1929723e-10 -3.7292358e-10 8.1679957e-10 
-6.6985438e-11 3.4981484e-10 2.9638569e-10 
-4.3433587e-10 6.0587146e-11 5.4435217e-10 
6.1841693e-10 3.0592934e-10 -3.3834618e-10 
-4.0077396e-11 -3.7841055e-10 1.4497369e-11 
-1.1220620e-10 -1.3312385e-10 2.0341978e-10 
-5.5773558e-10 -5.8461336e-10 9.6534847e-10 
-8.3617341e-10 -2.8801814e-10 -1.1618444e-10 
-2.7444215e-11 -1.3858312e-10 8.7741668e-11 
-6.1160021e-10 4.7737547e-10 -3.4474673e-10 
1.3577308e-13 4.1919521e-10 -3.3715968e-11 
-8.8084406e-10 3.3660605e-10 -9.7525032e-10 
-1.3799577e-10 2.2427588e-10 5.4451760e-10 
4.8773996e-10 -8.8119223e-10 6.4836991e-10 
-5.2930044e-10 1.9200397e-10 -4.9780141e-10 
6.2043430e-12 -2.7648930e-10 -2.1970104e-10 
-1.0890336e-09 -4.9830484e-10 -6.8633210e-10 
-2.5808541e-11 -1.5127115e-11 -4.5140544e-10 
3.7452466e-10 6.7585007e-11 -4.2459358e-10 
-6.0969413e-10 1.0445973e-09 -8.6264595e-10 
-2.3028020e-10 1.0012666e-09 -2.7317276e-10 
-7.6120760e-10 -8.0928642e-10 -1.4610650e-09 
-1.0654712e-09 -1.5240423e-10 -1.4692390e-10 
1.2111069e-09 1.2082979e-09 9.7771191e-10 
3.9179368e-10 7.8930201e-10 4.4087833e-10 
-1.2300104e-10 -4.1759118e-10 3.1112241e-10 
5.4149635e-10 2.0636863e-10 -6.2460537e-10 
-1.3327095e-09 6.7660294e-11 -1.3091475e-09 
-2.7940072e-10 -6.6161153e-11 2.3071933e-10 
-3.5501052e-10 4.7090309e-10 2.6350220e-09 
1.7076476e-10 5.5385758e-13 -3.1513911e-10 
-7.5246781e-10 -1.8353304e-09 2.3024056e-10 
8.9287960e-10 -1.6226495e-09 6.9632494e-10 
-1.6868495e-10 -1.5621519e-10 4.2008938e-11 
-5.3835186e-11 -1.6054873e-10 -1.6179244e-10 
5.3127489e-12 -6.2752115e-10 2.9274763e-10 
1.3199206e-10 -2.9186020e-10 -2.0379623e-10 
-2.4950916e-10 1.4263855e-09 -2.9688236e-09 
6.4061945e-10 -1.1230439e-09 7.3684658e-10 
2.5997112e-11 1.2355231e-10 -3.3331015e-11 
9.1505123e-11 -2.3498448e-09 7.5216866e-10 
5.1265564e-10 1.3324730e-10 3.6765380e-10 
6.7773342e-10 1.7803896e-10 1.3437494e-10 
4.6387099e-11 -1.7136510e-10 1.1997629e-10 
2.8547624e-09 3.1411621e-10 2.8462543e-10 
9.1460889e-10 6.1149796e-10 2.3032727e-10 
2.2453610e-10 4.7504417e-10 -8.9717241e-11 
-2.9383126e-10 1.0324187e-09 7.0177808e-11 
5.4823812e-10 8.9715974e-10 -7.8572554e-10 
-3.1516342e-10 -6.4672462e-11 -2.9758343e-10 
6.7088772e-11 4.3537265e-10 -1.9134094e-10 
-1.1670190e-10 6.7038058e-10 -1.3538516e-10 
-1.0781277e-09 -6.0234995e-10 -2.7019553e-10 
8.2498247e-10 -5.6422200e-10 2.9754482e-10 
-7.3167743e-11 -2.7670402e-10 -1.5099913e-10 
-2.0307461e-10 2.8640343e-10 -8.4741963e-10 
-1.7647249e-10 1.9779793e-10 -4.0119938e-10 
-4.5885934e-10 -5.5699151e-10 -1.8753855e-10 
7.3430012e-11 5.3077026e-10 7.2156586e-10 
6.5801288e-11 -7.4228312e-10 -1.9871151e-10 
1.5127952e-10 1.5107489e-10 6.0581595e-11 
6.5488670e-11 -8.7856694e-11 7.2414741e-11 
-1.5693678e-10 3.3509227e-11 -7.1735184e-10 
-1.2444108e-10 -2.7115446e-10 1.9801050e-10 
-1.4355933e-10 6.7017902e-10 -7.0608408e-10 
1.7216173e-10 -8.5199597e-11 5.3633992e-10 
5.1512455e-10 -3.6143052e-10 -1.9256831e-10 
-1.4008765e-10 -9.5907518e-11 -5.6174971e-11 
-3.3079078e-10 -1.0295476e-10 1.2357321e-11 
5.4046355e-12 6.5976745e-11 -2.4523139e-10 
5.2419102e-10 6.2547467e-10 -3.9919015e-10 
-1.8945372e-10 -1.3620330e-10 2.2681217e-09 
6.1228395e-10 2.9443784e-10 -8.1997284e-11 
-2.2952357e-10 -3.0223532e-10 -3.7765979e-10 
7.8180268e-11 -2.9906455e-10 9.0496521e-10 
-7.1938400e-10 2.2960077e-10 -8.1572547e-11 
-2.1664492e-10 -2.2006139e-10 -2.6611643e-10 
-1.7269017e-10 -2.2381234e-11 8.8043633e-10 
-7.9517420e-11 -1.3144687e-10 -2.1790575e-10 
-2.4099137e-10 -5.6679578e-10 -4.7771859e-10 
8.5811407e-11 1.0021313e-09 2.4544144e-10 
4.9555487e-10 1.2566696e-10 -2.9460765e-12 
1.0142019e-09 -5.5321614e-10 -1.5231244e-10 
1.2471751e-09 4.0742461e-12 1.5846071e-09 
-1.4057265e-09 -2.9235692e-10 1.9928725e-09 
1.2408203e-09 -4.7099197e-10 8.2728119e-10 
-1.5103451e-09 8.5244312e-10 1.7782846e-09 
-3.7005038e-10 -7.6379425e-10 -1.8963815e-09 
-3.4735134e-10 -4.8444360e-10 4.9153054e-10 
1.2677702e-10 -1.8441587e-10 -2.6927965e-10 
3.6665754e-10 2.9152361e-10 8.7771379e-10 
-1.4961147e-09 7.7601492e-10 -2.2351478e-09 
3.0022146e-10 -1.0449885e-09 -1.1250879e-09 
1.9473259e-09 -4.7859444e-10 -7.4283241e-10 
-3.5387797e-11 -1.0168516e-10 -1.7618425e-10 
3.7193618e-10 -2.2629233e-10 -1.2485941e-10 
-1.3263805e-10 8.4449281e-11 6.4523921e-11 
1.6400378e-10 4.1883724e-10 1.5585127e-09 
-1.8547436e-10 -5.0683241e-10 4.2366677e-10 
4.5174111e-11 5.6595048e-11 2.7826849e-10 
-1.4862392e-10 5.4907340e-10 2.1068723e-10 
-4.6843356e-11 -1.6663828e-09 -5.7027261e-10 
5.6214716e-10 -8.5534879e-10 1.5203928e-10 
1.0674951e-10 5.9247651e-10 -4.4479201e-10 
1.4058160e-10 -1.9166514e-10 -5.1754431e-11 
4.3535311e-10 2.6545266e-09 2.2216687e-10 
-1.0713084e-09 -1.1272773e-09 -1.0283471e-09 
3.9065795e-10 -6.6065142e-10 -1.2381067e-09 
7.0479672e-10 1.7090933e-09 -2.5810951e-10 
7.5424755e-10 -6.9385203e-10 1.0832988e-09 
-1.2914696e-10 2.5177094e-10 1.7861254e-10 
-3.6949316e-10 -3.0383598e-10 1.1806790e-10 
1.7154296e-10 4.4662232e-10 5.3468169e-10 
4.9802058e-11 -7.0801420e-11 -1.5046280e-09 
6.7840045e-10 -1.0849337e-10 -2.8565705e-10 
-3.0837229e-11 2.7157708e-11 1.1503443e-10 
4.7398319e-10 1.7143567e-10 9.5763057e-11 
-2.1284348e-09 1.5851950e-09 -3.2165165e-10 
2.4347430e-10 -7.1115025e-10 -1.2605984e-10 
3.4378979e-11 1.5522554e-09 8.9871249e-10 
1.1323820e-10 -5.2988508e-10 6.7873873e-10 
1.2352253e-10 3.2784664e-10 -3.5462472e-10 
9.5419905e-10 -1.2890123e-09 5.3526317e-10 
8.4695589e-10 1.1902599e-09 1.0184303e-09 
-6.8511763e-12 2.8305497e-10 -1.0240090e-09 
-1.6495812e-10 3.5975534e-10 -6.0350769e-10 
-3.0509670e-10 2.1315777e-10 2.7367364e-10 
-2.0235238e-10 -3.8017545e-10 -4.7806903e-10 
-4.6046675e-10 -6.2664302e-10 -1.3500249e-09 
2.7994577e-12 -2.1947930e-10 4.5228966e-11 
7.8391893e-10 4.2322871e-11 -3.7484951e-10 
7.8950796e-10 -1.7973156e-10 3.3901698e-10 
2.5824898e-10 -1.9449026e-10 -5.0068982e-10 
6.0075132e-11 -5.2463883e-10 2.8679792e-10 
-2.2192356e-10 5.4135973e-10 -9.6131336e-10 
-6.6054474e-11 5.6304977e-10 4.3266554e-10 
-6.6080996e-10 -1.7969773e-10 -1.7052897e-09 
1.9003478e-10 -4.6601423e-10 -6.7661809e-10 
-1.0459317e-10 1.1893837e-10 4.0997105e-11 
2.6950842e-10 3.3311048e-10 2.3132950e-10 
1.0901198e-09 -2.0303070e-10 -7.2946993e-10 
-3.2227992e-10 -1.1839203e-10 -3.1076897e-10 
1.4424133e-10 1.6578487e-10 -2.4304911e-10 
2.8824310e-10 1.5959294e-10 -3.0075020e-10 
1.0843775e-09 -8.5382257e-10 4.7323290e-10 
-2.7835381e-10 -6.9674561e-10 9.8050945e-10 
1.3258287e-11 -9.6703612e-10 1.1416310e-09 
-7.8883100e-10 -1.4597725e-09 -1.0818451e-09 
1.0188015e-09 1.6985090e-09 -1.0555807e-09 
1.0403887e-09 -1.2002085e-09 1.9147546e-09 
6.0063243e-10 5.9424760e-10 2.1070350e-09 
-3.5571388e-10 3.0786124e-10 5.3730104e-10 
1.0646496e-09 4.2300757e-10 -1.2669669e-09 
1.1941220e-09 -1.3761012e-10 2.2237562e-10 
9.6827150e-11 -5.5228833e-10 -4.6872645e-10 
-3.0044195e-10 -1.1220674e-10 -7.2486611e-10 
1.6941412e-10 7.4821749e-10 7.0070220e-11 
-8.8904745e-10 1.4802415e-10 1.2666587e-09 
-3.0870664e-10 5.2337013e-10 -4.9835630e-10 
9.3957586e-10 9.5540176e-10 -1.2360984e-09 
-3.5695696e-10 -8.2007529e-10 7.8498147e-10 
1.7623190e-10 2.3767813e-10 3.7118597e-10 
-1.3816032e-10 -5.7753080e-11 -4.4690693e-10 
3.4798586e-10 9.0834429e-10 -9.6750208e-10 
6.7996171e-11 2.1043896e-10 7.3653167e-10 
-4.2924614e-10 2.0076336e-10 1.0134941e-10 
1.2815480e-09 1.3081892e-11 1.0129895e-09 
1.7149727e-10 2.3234331e-10 -1.2797901e-09 
1.0949784e-09 7.2177864e-10 1.3755678e-09 
1.1702145e-09 -1.3160849e-09 -1.4121283e-09 
-7.0559653e-10 -4.3152504e-10 8.4761020e-10 
-7.2173278e-10 1.1653249e-09 -9.0822483e-10 
-2.0255986e-09 -2.7181474e-10 1.7981064e-09 
2.1144393e-10 2.4849109e-10 -1.0301964e-10 
-5.1751725e-10 -2.6113811e-09 -9.1840691e-10 
-2.1820339e-11 4.3424073e-11 -8.7767424e-12 
-2.9956912e-10 1.1118223e-09 2.2117492e-11 
2.5642222e-10 -3.6031797e-10 2.8944336e-10 
1.4463965e-10 -7.1598331e-11 5.7511555e-11 
3.6198994e-10 -2.9535754e-09 7.9215044e-11 
-1.9590177e-10 1.3259257e-11 1.9610719e-10 
-5.5082700e-10 8.0003010e-10 -1.0155958e-10 
-2.3661359e-10 1.2788517e-10 -1.5028517e-10 
-1.1279185e-09 1.2713814e-09 9.0211401e-11 
-8.7442900e-11 -2.0878993e-10 -2.8264088e-10 
6.6713268e-10 -1.0543357e-09 -1.5846242e-09 
-1.3987284e-10 -6.7351164e-10 8.9064332e-11 
7.7973028e-10 8.8980262e-10 1.3018117e-09 
2.0581191e-10 -1.9200679e-10 8.6369648e-11 
-6.1065464e-10 -1.3018603e-09 1.2367573e-09 
-1.7309333e-10 -2.6900626e-10 -1.5462770e-10 
2.2557477e-10 4.6057996e-10 -1.1319751e-10 
-3.3488816e-11 -1.9377017e-10 9.5933997e-11 
-2.2999758e-11 -2.0707930e-10 -5.6401210e-11 
-0.0000000e+00 -0.0000000e+00 -0.0000000e+00 
3.1547001e-10 -6.5847477e-10 7.4871520e-10 
4.7046933e-10 -9.9513592e-12 6.6033547e-11 
-5.5509985e-10 -1.4500279e-09 6.1032616e-11 
-2.0829050e-11 1.8636631e-12 1.0262000e-11 
5.0997961e-10 -7.4691066e-11 8.6427832e-10 
-2.7997954e-10 -4.2172110e-10 -2.2386729e-10 
1.5280055e-10 8.6181956e-10 8.2810030e-11 
4.8355220e-10 3.2146044e-10 -9.0025820e-10 
-4.7152046e-11 2.7367228e-10 1.2523835e-09 
-1.9523239e-09 -2.1253223e-10 -9.9604391e-10 
1.2909821e-09 3.1182228e-09 9.5062480e-10 
7.1127643e-10 9.5213330e-11 -1.2617598e-09 
1.4696537e-10 -6.2388719e-11 4.2343115e-11 
-1.2026848e-10 1.6212782e-09 -1.3608721e-10 
-2.1669060e-10 1.2477520e-09 3.8498319e-11 
1.0899756e-09 8.3778186e-11 4.5195264e-10 
1.3898377e-10 3.9308081e-11 4.6897974e-10 
3.8384892e-11 -1.3028557e-10 5.2584451e-11 
-8.7187935e-10 -6.6202216e-10 -3.5386308e-10 
2.4984734e-10 -1.4907403e-10 4.8335402e-11 
-4.8311588e-10 7.9023554e-10 1.4888889e-09 
9.1826283e-11 -2.2891754e-10 -3.7331996e-10 
-1.9956834e-09 -2.4230145e-09 5.5024535e-10 
1.0078501e-09 -1.1447495e-10 7.0023404e-10 
-7.0170730e-10 -8.7715224e-10 1.5997582e-10 
-6.1779151e-11 -1.3314069e-10 -1.1964380e-11 
-2.4924104e-10 5.1284577e-11 -1.9717204e-10 
8.3800938e-10 6.0709365e-10 -1.1569083e-09 
-2.9751895e-10 -3.2736578e-09 3.3224948e-10 
-7.0716238e-10 -2.7432259e-10 -1.2490409e-09 
5.6224747e-11 -9.6254359e-11 -1.6092923e-10 
7.4117312e-10 -9.0014655e-11 -5.2159776e-10 
8.2901386e-10 -9.9905872e-10 -3.1352498e-10 
-6.3464178e-10 8.8339662e-11 3.2570741e-10 
-1.8701263e-09 1.3870611e-09 8.9263469e-10 
-2.7084386e-09 -2.6574829e-09 -2.6683164e-10 
-1.8813331e-09 -7.6299805e-10 3.1976857e-10 
2.9065347e-10 -7.4598916e-10 3.7092149e-10 
1.4338393e-10 8.2308240e-12 -2.0542236e-10 
-1.8602961e-09 1.1377198e-09 -1.3229516e-09 
3.0629582e-10 4.3033688e-10 -4.6788345e-10 
-2.2767139e-09 3.3077700e-11 1.4927927e-10 
-5.5677535e-10 6.8114701e-11 -7.3738521e-10 
-1.6515544e-10 5.7978337e-11 -1.8394457e-10 
-9.7048092e-11 7.7284218e-10 -6.4501304e-10 
7.0539063e-10 -2.2199802e-09 -2.0657154e-10 
-2.0057335e-10 5.5001337e-10 -6.8417154e-11 
-1.2464056e-10 3.1572731e-10 -2.1706435e-11 
-4.4169776e-10 8.0699919e-10 -1.0069052e-09 
-6.0046128e-11 4.6638332e-10 -1.3191570e-10 
6.1652272e-10 1.9388748e-10 -4.7827764e-10 
2.5321327e-09 3.9849772e-09 3.4925962e-10 
-1.7443255e-10 -4.9180576e-10 -4.9666082e-10 
6.5781262e-11 2.4478680e-11 2.5367510e-11 
1.1118930e-09 3.2794947e-09 -3.3055722e-10 
-1.5570739e-09 4.6461728e-12 -5.1197524e-10 
5.5632987e-10 3.3026412e-10 1.0711046e-11 
9.3751895e-10 -1.3258813e-09 -8.0065238e-10 
1.8271453e-09 -8.8082021e-11 -5.3334737e-10 
-3.6892767e-10 8.9700597e-10 -9.8864535e-11 
-9.5962227e-10 4.4251068e-11 1.3125664e-09 
1.9346069e-09 4.7368476e-10 4.2855483e-10 
-2.2213711e-10 1.1862149e-10 -2.1045490e-13 
2.0215249e-09 2.3472777e-10 9.2436137e-10 
4.2344992e-11 -3.3111175e-10 5.3338639e-10 
-2.1754283e-09 1.6136197e-09 1.0397005e-09 
1.4600265e-10 -8.3963503e-10 -4.7275306e-10 
-2.8889576e-11 -5.3231347e-10 9.4608965e-10 
-4.8458459e-11 -1.9342362e-10 -6.1681792e-11 
-1.5013629e-10 -3.2410852e-10 -1.6310713e-10 
4.3785961e-10 -1.9850881e-09 -1.8756050e-09 
1.2710513e-10 2.7005687e-09 4.8105275e-10 
1.3483882e-11 -3.4544595e-10 8.7224762e-11 
-1.7443288e-10 1.2011528e-10 -1.6217482e-10 
1.8903086e-10 1.6970436e-10 1.4584803e-10 
-1.8523674e-10 -3.4223258e-10 3.4555694e-10 
-2.6642205e-10 3.4536735e-10 2.7142982e-10 
7.6967893e-10 5.6267968e-10 -6.0024236e-10 
2.1696126e-12 -8.5032820e-10 -1.8319056e-10 
-5.7071851e-11 1.1326312e-09 -1.0342244e-09 
1.0688636e-09 8.8525648e-10 -4.6795931e-12 
-1.1493343e-09 -4.9870396e-11 9.9446085e-10 
5.2517636e-11 -4.1913956e-10 -9.2417768e-11 
2.4214419e-09 -1.9104492e-12 2.5583899e-09 
1.3679573e-11 8.5179830e-10 -3.2360886e-10 
2.1221883e-10 5.8797850e-10 1.5244239e-09 
-7.4212320e-10 3.2901928e-10 1.8387290e-10 
1.0531747e-10 4.6785714e-10 -8.0103735e-10 
-2.8107397e-10 -1.8100402e-09 3.0326136e-10 
-7.2441379e-11 -1.4617597e-10 -7.6418899e-11 
-1.0791637e-10 3.4043082e-10 -3.1797100e-11 
1.1778536e-09 -1.4448727e-09 -6.5769812e-10 
-2.2874602e-10 -7.7653112e-10 -1.5979254e-10 
2.6632236e-11 7.9878365e-10 6.1293320e-10 
-9.2322600e-10 -1.5981948e-09 -9.8608899e-10 
-1.1866404e-10 -1.2513884e-10 8.9673574e-10 
4.3315221e-10 -1.3435076e-09 -3.3075952e-11 
-2.6963274e-11 -1.3973425e-09 -1.5478258e-09 
-2.7260347e-10 -1.7709932e-10 3.8643008e-10 
-2.0945089e-11 -4.7182924e-11 -1.0334326e-10 
1.2234498e-10 -2.1891688e-11 -8.9465368e-10 
-5.2038007e-10 2.9779290e-10 -4.6668786e-10 
-1.5136416e-10 -4.1774384e-10 -9.3956863e-11 
4.8849003e-10 6.2329025e-10 -1.9211013e-10 
-1.4480501e-09 7.6905683e-11 2.4208850e-09 
-8.8556934e-10 1.1626312e-09 1.2079333e-09 
5.9618255e-11 -6.7211564e-10 -1.5433439e-09 
-3.4428174e-10 3.4528193e-11 -3.8159614e-10 
-9.0552782e-10 1.2407639e-09 7.9301732e-10 
-7.4426836e-12 3.3866598e-10 -3.8839548e-10 
-4.3758289e-10 -4.4900621e-11 -7.6639534e-10 
1.0515054e-09 3.8545070e-10 -1.3015048e-09 
3.5200984e-10 6.4535710e-10 -9.6471287e-10 
1.0008956e-10 8.8095475e-11 6.4041616e-10 
-1.1328671e-09 -9.4270362e-11 4.7610849e-10 
3.6123951e-10 3.3036981e-10 1.2646215e-10 
-1.0373751e-10 -9.3419369e-11 2.2909565e-10 
-2.3297070e-10 -2.8418132e-10 1.0210136e-10 
1.7516669e-10 -7.4837289e-11 -4.3708190e-10 
-6.3699873e-10 1.8321586e-09 5.2617588e-10 
-9.1318020e-10 5.6683924e-10 1.1091261e-09 
2.4704430e-10 7.9966350e-10 7.2484313e-10 
-6.6398809e-10 9.3869301e-11 -1.3654025e-10 
1.7151996e-10 -1.6802073e-09 1.9879512e-10 
-7.3517159e-10 8.7243496e-10 -2.2761022e-10 
3.1653755e-10 2.7233765e-10 9.9577580e-10 
3.5411646e-10 2.3219435e-10 2.7277519e-10 
-1.2996461e-10 -7.5723601e-11 -8.5788793e-10 
2.3473190e-10 -1.3372312e-10 1.8146544e-10 
1.5019716e-11 -1.6319912e-11 -0.0000000e+00 
-1.6912610e-10 4.1201439e-10 4.3914050e-10 
2.2230464e-11 -7.4921497e-10 2.4821659e-10 
-4.9309976e-11 8.6523254e-11 3.7859126e-11 
-4.3455575e-10 1.3478252e-10 -9.2483132e-11 
-3.5813300e-10 -2.5284443e-11 2.0591874e-10 
7.5317175e-10 -3.2127440e-10 -7.5455076e-10 
-7.0180051e-10 2.9685240e-10 -4.4150097e-11 
5.4092866e-11 -4.7320520e-10 -2.9625424e-10 
-1.6954506e-09 6.5534639e-10 -1.4916355e-09 
-3.0969283e-10 -4.2380055e-10 4.2085549e-10 
-2.2239106e-10 -5.8239991e-10 -6.8766597e-11 
-6.1213595e-10 5.6767818e-10 4.0827447e-10 
-8.6543182e-11 1.8173792e-10 5.0609499e-11 
3.1052996e-10 -2.3821245e-10 -3.8594430e-10 
5.7395017e-10 1.8397549e-10 9.1803724e-11 
2.6679218e-11 -5.1572590e-11 -5.7924773e-11 
-2.7648930e-11 4.2715598e-11 2.6661545e-10 
2.8249954e-11 5.6030818e-12 1.1743202e-10 
2.9823077e-10 -9.0255208e-12 2.4046767e-10 
-1.1929012e-11 -1.3425952e-10 -1.7643952e-10 
-3.6474831e-10 2.4005126e-10 1.1903317e-10 
8.8781274e-11 -6.8121460e-11 -1.0189759e-10 
VECTOR_LAGRANGE_MULTIPLIER 3 2292  float
0.0000000e+00 0.0000000e+00 0.0000000e+00 
0.0000000e+00 0.0000000e+00 0.0000000e+00 
0.0000000e+00 0.0000000e+00 0.0000000e+00 
0.0000000e+00 0.0000000e+00 0.0000000e+00 
0.0000000e+00 0.0000000e+00 0.0000000e+00 
0.0000000e+00 0.0000000e+00 0.0000000e+00 
0.0000000e+00 0.0000000e+00 0.0000000e+00 
0.0000000e+00 0.0000000e+00 0.0000000e+00 
0.0000000e+00 0.0000000e+00 0.0000000e+00 
0.0000000e+00 0.0000000e+00 0.0000000e+00 
0.0000000e+00 0.0000000e+00 0.0000000e+00 
0.0000000e+00 0.0000000e+00 0.0000000e+00 
0.0000000e+00 0.0000000e+00 0.0000000e+00 
0.0000000e+00 0.0000000e+00 0.0000000e+00 
0.0000000e+00 0.0000000e+00 0.0000000e+00 
0.0000000e+00 0.0000000e+00 0.0000000e+00 
0.0000000e+00 0.0000000e+00 0.0000000e+00 
0.0000000e+00 0.0000000e+00 0.0000000e+00 
0.0000000e+00 0.0000000e+00 0.0000000e+00 
0.0000000e+00 0.0000000e+00 0.0000000e+00 
0.0000000e+00 0.0000000e+00 0.0000000e+00 
0.0000000e+00 0.0000000e+00 0.0000000e+00 
0.0000000e+00 0.0000000e+00 0.0000000e+00 
0.0000000e+00 0.0000000e+00 0.0000000e+00 
0.0000000e+00 0.0000000e+00 0.0000000e+00 
0.0000000e+00 0.0000000e+00 0.0000000e+00 
0.0000000e+00 0.0000000e+00 0.0000000e+00 
0.0000000e+00 0.0000000e+00 0.0000000e+00 
0.0000000e+00 0.0000000e+00 0.0000000e+00 
0.0000000e+00 0.0000000e+00 0.0000000e+00 
0.0000000e+00 0.0000000e+00 0.0000000e+00 
0.0000000e+00 0.0000000e+00 0.0000000e+00 
0.0000000e+00 0.0000000e+00 0.0000000e+00 
0.0000000e+00 0.0000000e+00 0.0000000e+00 
0.0000000e+00 0.0000000e+00 0.0000000e+00 
0.0000000e+00 0.0000000e+00 0.0000000e+00 
0.0000000e+00 0.0000000e+00 0.0000000e+00 
0.0000000e+00 0.0000000e+00 0.0000000e+00 
0.0000000e+00 0.0000000e+00 0.0000000e+00 
0.0000000e+00 0.0000000e+00 0.0000000e+00 
0.0000000e+00 0.0000000e+00 0.0000000e+00 
0.0000000e+00 0.0000000e+00 0.0000000e+00 
0.0000000e+00 0.0000000e+00 0.0000000e+00 
0.0000000e+00 0.0000000e+00 0.0000000e+00 
0.0000000e+00 0.0000000e+00 0.0000000e+00 
0.0000000e+00 0.0000000e+00 0.0000000e+00 
0.0000000e+00 0.0000000e+00 0.0000000e+00 
0.0000000e+00 0.0000000e+00 0.0000000e+00 
0.0000000e+00 0.0000000e+00 0.0000000e+00 
0.0000000e+00 0.0000000e+00 0.0000000e+00 
0.0000000e+00 0.0000000e+00 0.0000000e+00 
0.0000000e+00 0.0000000e+00 0.0000000e+00 
0.0000000e+00 0.0000000e+00 0.0000000e+00 
0.0000000e+00 0.0000000e+00 0.0000000e+00 
0.0000000e+00 0.0000000e+00 0.0000000e+00 
0.0000000e+00 0.0000000e+00 0.0000000e+00 
0.0000000e+00 0.0000000e+00 0.0000000e+00 
0.0000000e+00 0.0000000e+00 0.0000000e+00 
0.0000000e+00 0.0000000e+00 0.0000000e+00 
0.0000000e+00 0.0000000e+00 0.0000000e+00 
0.0000000e+00 0.0000000e+00 0.0000000e+00 
0.0000000e+00 0.0000000e+00 0.0000000e+00 
0.0000000e+00 0.0000000e+00 0.0000000e+00 
0.0000000e+00 0.0000000e+00 0.0000000e+00 
0.0000000e+00 0.0000000e+00 0.0000000e+00 
0.0000000e+00 0.0000000e+00 0.0000000e+00 
0.0000000e+00 0.0000000e+00 0.0000000e+00 
0.0000000e+00 0.0000000e+00 0.0000000e+00 
0.0000000e+00 0.0000000e+00 0.0000000e+00 
0.0000000e+00 0.0000000e+00 0.0000000e+00 
0.0000000e+00 0.0000000e+00 0.0000000e+00 
0.0000000e+00 0.0000000e+00 0.0000000e+00 
0.0000000e+00 0.0000000e+00 0.0000000e+00 
0.0000000e+00 0.0000000e+00 0.0000000e+00 
0.0000000e+00 0.0000000e+00 0.0000000e+00 
0.0000000e+00 0.0000000e+00 0.0000000e+00 
0.0000000e+00 0.0000000e+00 0.0000000e+00 
0.0000000e+00 0.0000000e+00 0.0000000e+00 
0.0000000e+00 0.0000000e+00 0.0000000e+00 
0.0000000e+00 0.0000000e+00 0.0000000e+00 
0.0000000e+00 0.0000000e+00 0.0000000e+00 
0.0000000e+00 0.0000000e+00 0.0000000e+00 
0.0000000e+00 0.0000000e+00 0.0000000e+00 
0.0000000e+00 0.0000000e+00 0.0000000e+00 
0.0000000e+00 0.0000000e+00 0.0000000e+00 
0.0000000e+00 0.0000000e+00 0.0000000e+00 
0.0000000e+00 0.0000000e+00 0.0000000e+00 
0.0000000e+00 0.0000000e+00 0.0000000e+00 
0.0000000e+00 0.0000000e+00 0.0000000e+00 
0.0000000e+00 0.0000000e+00 0.0000000e+00 
0.0000000e+00 0.0000000e+00 0.0000000e+00 
0.0000000e+00 0.0000000e+00 0.0000000e+00 
0.0000000e+00 0.0000000e+00 0.0000000e+00 
0.0000000e+00 0.0000000e+00 0.0000000e+00 
0.0000000e+00 0.0000000e+00 0.0000000e+00 
0.0000000e+00 0.0000000e+00 0.0000000e+00 
0.0000000e+00 0.0000000e+00 0.0000000e+00 
0.0000000e+00 0.0000000e+00 0.0000000e+00 
0.0000000e+00 0.0000000e+00 0.0000000e+00 
0.0000000e+00 0.0000000e+00 0.0000000e+00 
0.0000000e+00 0.0000000e+00 0.0000000e+00 
0.0000000e+00 0.0000000e+00 0.0000000e+00 
0.0000000e+00 0.0000000e+00 0.0000000e+00 
0.0000000e+00 0.0000000e+00 0.0000000e+00 
0.0000000e+00 0.0000000e+00 0.0000000e+00 
0.0000000e+00 0.0000000e+00 0.0000000e+00 
0.0000000e+00 0.0000000e+00 0.0000000e+00 
0.0000000e+00 0.0000000e+00 0.0000000e+00 
0.0000000e+00 0.0000000e+00 0.0000000e+00 
0.0000000e+00 0.0000000e+00 0.0000000e+00 
0.0000000e+00 0.0000000e+00 0.0000000e+00 
0.0000000e+00 0.0000000e+00 0.0000000e+00 
0.0000000e+00 0.0000000e+00 0.0000000e+00 
0.0000000e+00 0.0000000e+00 0.0000000e+00 
0.0000000e+00 0.0000000e+00 0.0000000e+00 
0.0000000e+00 0.0000000e+00 0.0000000e+00 
0.0000000e+00 0.0000000e+00 0.0000000e+00 
0.0000000e+00 0.0000000e+00 0.0000000e+00 
0.0000000e+00 0.0000000e+00 0.0000000e+00 
0.0000000e+00 0.0000000e+00 0.0000000e+00 
0.0000000e+00 0.0000000e+00 0.0000000e+00 
0.0000000e+00 0.0000000e+00 0.0000000e+00 
0.0000000e+00 0.0000000e+00 0.0000000e+00 
0.0000000e+00 0.0000000e+00 0.0000000e+00 
0.0000000e+00 0.0000000e+00 0.0000000e+00 
0.0000000e+00 0.0000000e+00 0.0000000e+00 
0.0000000e+00 0.0000000e+00 0.0000000e+00 
0.0000000e+00 0.0000000e+00 0.0000000e+00 
0.0000000e+00 0.0000000e+00 0.0000000e+00 
0.0000000e+00 0.0000000e+00 0.0000000e+00 
0.0000000e+00 0.0000000e+00 0.0000000e+00 
0.0000000e+00 0.0000000e+00 0.0000000e+00 
0.0000000e+00 0.0000000e+00 0.0000000e+00 
0.0000000e+00 0.0000000e+00 0.0000000e+00 
0.0000000e+00 0.0000000e+00 0.0000000e+00 
0.0000000e+00 0.0000000e+00 0.0000000e+00 
0.0000000e+00 0.0000000e+00 0.0000000e+00 
0.0000000e+00 0.0000000e+00 0.0000000e+00 
0.0000000e+00 0.0000000e+00 0.0000000e+00 
0.0000000e+00 0.0000000e+00 0.0000000e+00 
0.0000000e+00 0.0000000e+00 0.0000000e+00 
0.0000000e+00 0.0000000e+00 0.0000000e+00 
0.0000000e+00 0.0000000e+00 0.0000000e+00 
0.0000000e+00 0.0000000e+00 0.0000000e+00 
0.0000000e+00 0.0000000e+00 0.0000000e+00 
0.0000000e+00 0.0000000e+00 0.0000000e+00 
0.0000000e+00 0.0000000e+00 0.0000000e+00 
0.0000000e+00 0.0000000e+00 0.0000000e+00 
0.0000000e+00 0.0000000e+00 0.0000000e+00 
0.0000000e+00 0.0000000e+00 0.0000000e+00 
0.0000000e+00 0.0000000e+00 0.0000000e+00 
0.0000000e+00 0.0000000e+00 0.0000000e+00 
0.0000000e+00 0.0000000e+00 0.0000000e+00 
0.0000000e+00 0.0000000e+00 0.0000000e+00 
0.0000000e+00 0.0000000e+00 0.0000000e+00 
0.0000000e+00 0.0000000e+00 0.0000000e+00 
0.0000000e+00 0.0000000e+00 0.0000000e+00 
0.0000000e+00 0.0000000e+00 0.0000000e+00 
0.0000000e+00 0.0000000e+00 0.0000000e+00 
0.0000000e+00 0.0000000e+00 0.0000000e+00 
0.0000000e+00 0.0000000e+00 0.0000000e+00 
0.0000000e+00 0.0000000e+00 0.0000000e+00 
0.0000000e+00 0.0000000e+00 0.0000000e+00 
0.0000000e+00 0.0000000e+00 0.0000000e+00 
0.0000000e+00 0.0000000e+00 0.0000000e+00 
0.0000000e+00 0.0000000e+00 0.0000000e+00 
0.0000000e+00 0.0000000e+00 0.0000000e+00 
0.0000000e+00 0.0000000e+00 0.0000000e+00 
0.0000000e+00 0.0000000e+00 0.0000000e+00 
0.0000000e+00 0.0000000e+00 0.0000000e+00 
0.0000000e+00 0.0000000e+00 0.0000000e+00 
0.0000000e+00 0.0000000e+00 0.0000000e+00 
0.0000000e+00 0.0000000e+00 0.0000000e+00 
0.0000000e+00 0.0000000e+00 0.0000000e+00 
0.0000000e+00 0.0000000e+00 0.0000000e+00 
0.0000000e+00 0.0000000e+00 0.0000000e+00 
0.0000000e+00 0.0000000e+00 0.0000000e+00 
0.0000000e+00 0.0000000e+00 0.0000000e+00 
0.0000000e+00 0.0000000e+00 0.0000000e+00 
0.0000000e+00 0.0000000e+00 0.0000000e+00 
0.0000000e+00 0.0000000e+00 0.0000000e+00 
0.0000000e+00 0.0000000e+00 0.0000000e+00 
0.0000000e+00 0.0000000e+00 0.0000000e+00 
0.0000000e+00 0.0000000e+00 0.0000000e+00 
0.0000000e+00 0.0000000e+00 0.0000000e+00 
0.0000000e+00 0.0000000e+00 0.0000000e+00 
0.0000000e+00 0.0000000e+00 0.0000000e+00 
0.0000000e+00 0.0000000e+00 0.0000000e+00 
0.0000000e+00 0.0000000e+00 0.0000000e+00 
0.0000000e+00 0.0000000e+00 0.0000000e+00 
0.0000000e+00 0.0000000e+00 0.0000000e+00 
0.0000000e+00 0.0000000e+00 0.0000000e+00 
0.0000000e+00 0.0000000e+00 0.0000000e+00 
0.0000000e+00 0.0000000e+00 0.0000000e+00 
0.0000000e+00 0.0000000e+00 0.0000000e+00 
0.0000000e+00 0.0000000e+00 0.0000000e+00 
0.0000000e+00 0.0000000e+00 0.0000000e+00 
0.0000000e+00 0.0000000e+00 0.0000000e+00 
0.0000000e+00 0.0000000e+00 0.0000000e+00 
0.0000000e+00 0.0000000e+00 0.0000000e+00 
0.0000000e+00 0.0000000e+00 0.0000000e+00 
0.0000000e+00 0.0000000e+00 0.0000000e+00 
0.0000000e+00 0.0000000e+00 0.0000000e+00 
0.0000000e+00 0.0000000e+00 0.0000000e+00 
0.0000000e+00 0.0000000e+00 0.0000000e+00 
0.0000000e+00 0.0000000e+00 0.0000000e+00 
0.0000000e+00 0.0000000e+00 0.0000000e+00 
0.0000000e+00 0.0000000e+00 0.0000000e+00 
0.0000000e+00 0.0000000e+00 0.0000000e+00 
0.0000000e+00 0.0000000e+00 0.0000000e+00 
0.0000000e+00 0.0000000e+00 0.0000000e+00 
0.0000000e+00 0.0000000e+00 0.0000000e+00 
0.0000000e+00 0.0000000e+00 0.0000000e+00 
0.0000000e+00 0.0000000e+00 0.0000000e+00 
0.0000000e+00 0.0000000e+00 0.0000000e+00 
0.0000000e+00 0.0000000e+00 0.0000000e+00 
0.0000000e+00 0.0000000e+00 0.0000000e+00 
0.0000000e+00 0.0000000e+00 0.0000000e+00 
0.0000000e+00 0.0000000e+00 0.0000000e+00 
0.0000000e+00 0.0000000e+00 0.0000000e+00 
0.0000000e+00 0.0000000e+00 0.0000000e+00 
0.0000000e+00 0.0000000e+00 0.0000000e+00 
0.0000000e+00 0.0000000e+00 0.0000000e+00 
0.0000000e+00 0.0000000e+00 0.0000000e+00 
0.0000000e+00 0.0000000e+00 0.0000000e+00 
0.0000000e+00 0.0000000e+00 0.0000000e+00 
0.0000000e+00 0.0000000e+00 0.0000000e+00 
0.0000000e+00 0.0000000e+00 0.0000000e+00 
0.0000000e+00 0.0000000e+00 0.0000000e+00 
0.0000000e+00 0.0000000e+00 0.0000000e+00 
0.0000000e+00 0.0000000e+00 0.0000000e+00 
0.0000000e+00 0.0000000e+00 0.0000000e+00 
0.0000000e+00 0.0000000e+00 0.0000000e+00 
0.0000000e+00 0.0000000e+00 0.0000000e+00 
0.0000000e+00 0.0000000e+00 0.0000000e+00 
0.0000000e+00 0.0000000e+00 0.0000000e+00 
0.0000000e+00 0.0000000e+00 0.0000000e+00 
0.0000000e+00 0.0000000e+00 0.0000000e+00 
0.0000000e+00 0.0000000e+00 0.0000000e+00 
0.0000000e+00 0.0000000e+00 0.0000000e+00 
0.0000000e+00 0.0000000e+00 0.0000000e+00 
0.0000000e+00 0.0000000e+00 0.0000000e+00 
0.0000000e+00 0.0000000e+00 0.0000000e+00 
0.0000000e+00 0.0000000e+00 0.0000000e+00 
0.0000000e+00 0.0000000e+00 0.0000000e+00 
0.0000000e+00 0.0000000e+00 0.0000000e+00 
0.0000000e+00 0.0000000e+00 0.0000000e+00 
0.0000000e+00 0.0000000e+00 0.0000000e+00 
0.0000000e+00 0.0000000e+00 0.0000000e+00 
0.0000000e+00 0.0000000e+00 0.0000000e+00 
0.0000000e+00 0.0000000e+00 0.0000000e+00 
0.0000000e+00 0.0000000e+00 0.0000000e+00 
0.0000000e+00 0.0000000e+00 0.0000000e+00 
0.0000000e+00 0.0000000e+00 0.0000000e+00 
0.0000000e+00 0.0000000e+00 0.0000000e+00 
0.0000000e+00 0.0000000e+00 0.0000000e+00 
0.0000000e+00 0.0000000e+00 0.0000000e+00 
0.0000000e+00 0.0000000e+00 0.0000000e+00 
0.0000000e+00 0.0000000e+00 0.0000000e+00 
0.0000000e+00 0.0000000e+00 0.0000000e+00 
0.0000000e+00 0.0000000e+00 0.0000000e+00 
0.0000000e+00 0.0000000e+00 0.0000000e+00 
0.0000000e+00 0.0000000e+00 0.0000000e+00 
0.0000000e+00 0.0000000e+00 0.0000000e+00 
0.0000000e+00 0.0000000e+00 0.0000000e+00 
0.0000000e+00 0.0000000e+00 0.0000000e+00 
0.0000000e+00 0.0000000e+00 0.0000000e+00 
0.0000000e+00 0.0000000e+00 0.0000000e+00 
0.0000000e+00 0.0000000e+00 0.0000000e+00 
0.0000000e+00 0.0000000e+00 0.0000000e+00 
0.0000000e+00 0.0000000e+00 0.0000000e+00 
0.0000000e+00 0.0000000e+00 0.0000000e+00 
0.0000000e+00 0.0000000e+00 0.0000000e+00 
0.0000000e+00 0.0000000e+00 0.0000000e+00 
0.0000000e+00 0.0000000e+00 0.0000000e+00 
0.0000000e+00 0.0000000e+00 0.0000000e+00 
0.0000000e+00 0.0000000e+00 0.0000000e+00 
0.0000000e+00 0.0000000e+00 0.0000000e+00 
0.0000000e+00 0.0000000e+00 0.0000000e+00 
0.0000000e+00 0.0000000e+00 0.0000000e+00 
0.0000000e+00 0.0000000e+00 0.0000000e+00 
0.0000000e+00 0.0000000e+00 0.0000000e+00 
0.0000000e+00 0.0000000e+00 0.0000000e+00 
0.0000000e+00 0.0000000e+00 0.0000000e+00 
0.0000000e+00 0.0000000e+00 0.0000000e+00 
0.0000000e+00 0.0000000e+00 0.0000000e+00 
0.0000000e+00 0.0000000e+00 0.0000000e+00 
0.0000000e+00 0.0000000e+00 0.0000000e+00 
0.0000000e+00 0.0000000e+00 0.0000000e+00 
0.0000000e+00 0.0000000e+00 0.0000000e+00 
0.0000000e+00 0.0000000e+00 0.0000000e+00 
0.0000000e+00 0.0000000e+00 0.0000000e+00 
0.0000000e+00 0.0000000e+00 0.0000000e+00 
0.0000000e+00 0.0000000e+00 0.0000000e+00 
0.0000000e+00 0.0000000e+00 0.0000000e+00 
0.0000000e+00 0.0000000e+00 0.0000000e+00 
0.0000000e+00 0.0000000e+00 0.0000000e+00 
0.0000000e+00 0.0000000e+00 0.0000000e+00 
0.0000000e+00 0.0000000e+00 0.0000000e+00 
0.0000000e+00 0.0000000e+00 0.0000000e+00 
0.0000000e+00 0.0000000e+00 0.0000000e+00 
0.0000000e+00 0.0000000e+00 0.0000000e+00 
0.0000000e+00 0.0000000e+00 0.0000000e+00 
0.0000000e+00 0.0000000e+00 0.0000000e+00 
0.0000000e+00 0.0000000e+00 0.0000000e+00 
0.0000000e+00 0.0000000e+00 0.0000000e+00 
0.0000000e+00 0.0000000e+00 0.0000000e+00 
0.0000000e+00 0.0000000e+00 0.0000000e+00 
0.0000000e+00 0.0000000e+00 0.0000000e+00 
0.0000000e+00 0.0000000e+00 0.0000000e+00 
0.0000000e+00 0.0000000e+00 0.0000000e+00 
0.0000000e+00 0.0000000e+00 0.0000000e+00 
0.0000000e+00 0.0000000e+00 0.0000000e+00 
0.0000000e+00 0.0000000e+00 0.0000000e+00 
0.0000000e+00 0.0000000e+00 0.0000000e+00 
0.0000000e+00 0.0000000e+00 0.0000000e+00 
0.0000000e+00 0.0000000e+00 0.0000000e+00 
0.0000000e+00 0.0000000e+00 0.0000000e+00 
0.0000000e+00 0.0000000e+00 0.0000000e+00 
0.0000000e+00 0.0000000e+00 0.0000000e+00 
0.0000000e+00 0.0000000e+00 0.0000000e+00 
0.0000000e+00 0.0000000e+00 0.0000000e+00 
0.0000000e+00 0.0000000e+00 0.0000000e+00 
0.0000000e+00 0.0000000e+00 0.0000000e+00 
0.0000000e+00 0.0000000e+00 0.0000000e+00 
0.0000000e+00 0.0000000e+00 0.0000000e+00 
0.0000000e+00 0.0000000e+00 0.0000000e+00 
0.0000000e+00 0.0000000e+00 0.0000000e+00 
0.0000000e+00 0.0000000e+00 0.0000000e+00 
0.0000000e+00 0.0000000e+00 0.0000000e+00 
0.0000000e+00 0.0000000e+00 0.0000000e+00 
0.0000000e+00 0.0000000e+00 0.0000000e+00 
0.0000000e+00 0.0000000e+00 0.0000000e+00 
0.0000000e+00 0.0000000e+00 0.0000000e+00 
0.0000000e+00 0.0000000e+00 0.0000000e+00 
0.0000000e+00 0.0000000e+00 0.0000000e+00 
0.0000000e+00 0.0000000e+00 0.0000000e+00 
0.0000000e+00 0.0000000e+00 0.0000000e+00 
0.0000000e+00 0.0000000e+00 0.0000000e+00 
0.0000000e+00 0.0000000e+00 0.0000000e+00 
0.0000000e+00 0.0000000e+00 0.0000000e+00 
0.0000000e+00 0.0000000e+00 0.0000000e+00 
0.0000000e+00 0.0000000e+00 0.0000000e+00 
0.0000000e+00 0.0000000e+00 0.0000000e+00 
0.0000000e+00 0.0000000e+00 0.0000000e+00 
0.0000000e+00 0.0000000e+00 0.0000000e+00 
0.0000000e+00 0.0000000e+00 0.0000000e+00 
0.0000000e+00 0.0000000e+00 0.0000000e+00 
0.0000000e+00 0.0000000e+00 0.0000000e+00 
0.0000000e+00 0.0000000e+00 0.0000000e+00 
0.0000000e+00 0.0000000e+00 0.0000000e+00 
0.0000000e+00 0.0000000e+00 0.0000000e+00 
0.0000000e+00 0.0000000e+00 0.0000000e+00 
0.0000000e+00 0.0000000e+00 0.0000000e+00 
0.0000000e+00 0.0000000e+00 0.0000000e+00 
0.0000000e+00 0.0000000e+00 0.0000000e+00 
0.0000000e+00 0.0000000e+00 0.0000000e+00 
0.0000000e+00 0.0000000e+00 0.0000000e+00 
0.0000000e+00 0.0000000e+00 0.0000000e+00 
0.0000000e+00 0.0000000e+00 0.0000000e+00 
0.0000000e+00 0.0000000e+00 0.0000000e+00 
0.0000000e+00 0.0000000e+00 0.0000000e+00 
0.0000000e+00 0.0000000e+00 0.0000000e+00 
0.0000000e+00 0.0000000e+00 0.0000000e+00 
0.0000000e+00 0.0000000e+00 0.0000000e+00 
0.0000000e+00 0.0000000e+00 0.0000000e+00 
0.0000000e+00 0.0000000e+00 0.0000000e+00 
0.0000000e+00 0.0000000e+00 0.0000000e+00 
0.0000000e+00 0.0000000e+00 0.0000000e+00 
0.0000000e+00 0.0000000e+00 0.0000000e+00 
0.0000000e+00 0.0000000e+00 0.0000000e+00 
0.0000000e+00 0.0000000e+00 0.0000000e+00 
0.0000000e+00 0.0000000e+00 0.0000000e+00 
0.0000000e+00 0.0000000e+00 0.0000000e+00 
0.0000000e+00 0.0000000e+00 0.0000000e+00 
0.0000000e+00 0.0000000e+00 0.0000000e+00 
0.0000000e+00 0.0000000e+00 0.0000000e+00 
0.0000000e+00 0.0000000e+00 0.0000000e+00 
0.0000000e+00 0.0000000e+00 0.0000000e+00 
0.0000000e+00 0.0000000e+00 0.0000000e+00 
0.0000000e+00 0.0000000e+00 0.0000000e+00 
0.0000000e+00 0.0000000e+00 0.0000000e+00 
0.0000000e+00 0.0000000e+00 0.0000000e+00 
0.0000000e+00 0.0000000e+00 0.0000000e+00 
0.0000000e+00 0.0000000e+00 0.0000000e+00 
0.0000000e+00 0.0000000e+00 0.0000000e+00 
0.0000000e+00 0.0000000e+00 0.0000000e+00 
0.0000000e+00 0.0000000e+00 0.0000000e+00 
0.0000000e+00 0.0000000e+00 0.0000000e+00 
0.0000000e+00 0.0000000e+00 0.0000000e+00 
0.0000000e+00 0.0000000e+00 0.0000000e+00 
0.0000000e+00 0.0000000e+00 0.0000000e+00 
0.0000000e+00 0.0000000e+00 0.0000000e+00 
0.0000000e+00 0.0000000e+00 0.0000000e+00 
0.0000000e+00 0.0000000e+00 0.0000000e+00 
0.0000000e+00 0.0000000e+00 0.0000000e+00 
0.0000000e+00 0.0000000e+00 0.0000000e+00 
0.0000000e+00 0.0000000e+00 0.0000000e+00 
0.0000000e+00 0.0000000e+00 0.0000000e+00 
0.0000000e+00 0.0000000e+00 0.0000000e+00 
0.0000000e+00 0.0000000e+00 0.0000000e+00 
0.0000000e+00 0.0000000e+00 0.0000000e+00 
0.0000000e+00 0.0000000e+00 0.0000000e+00 
0.0000000e+00 0.0000000e+00 0.0000000e+00 
0.0000000e+00 0.0000000e+00 0.0000000e+00 
0.0000000e+00 0.0000000e+00 0.0000000e+00 
0.0000000e+00 0.0000000e+00 0.0000000e+00 
0.0000000e+00 0.0000000e+00 0.0000000e+00 
0.0000000e+00 0.0000000e+00 0.0000000e+00 
0.0000000e+00 0.0000000e+00 0.0000000e+00 
0.0000000e+00 0.0000000e+00 0.0000000e+00 
0.0000000e+00 0.0000000e+00 0.0000000e+00 
0.0000000e+00 0.0000000e+00 0.0000000e+00 
0.0000000e+00 0.0000000e+00 0.0000000e+00 
0.0000000e+00 0.0000000e+00 0.0000000e+00 
0.0000000e+00 0.0000000e+00 0.0000000e+00 
0.0000000e+00 0.0000000e+00 0.0000000e+00 
0.0000000e+00 0.0000000e+00 0.0000000e+00 
0.0000000e+00 0.0000000e+00 0.0000000e+00 
0.0000000e+00 0.0000000e+00 0.0000000e+00 
0.0000000e+00 0.0000000e+00 0.0000000e+00 
0.0000000e+00 0.0000000e+00 0.0000000e+00 
0.0000000e+00 0.0000000e+00 0.0000000e+00 
0.0000000e+00 0.0000000e+00 0.0000000e+00 
0.0000000e+00 0.0000000e+00 0.0000000e+00 
0.0000000e+00 0.0000000e+00 0.0000000e+00 
0.0000000e+00 0.0000000e+00 0.0000000e+00 
0.0000000e+00 0.0000000e+00 0.0000000e+00 
0.0000000e+00 0.0000000e+00 0.0000000e+00 
0.0000000e+00 0.0000000e+00 0.0000000e+00 
0.0000000e+00 0.0000000e+00 0.0000000e+00 
0.0000000e+00 0.0000000e+00 0.0000000e+00 
0.0000000e+00 0.0000000e+00 0.0000000e+00 
0.0000000e+00 0.0000000e+00 0.0000000e+00 
0.0000000e+00 0.0000000e+00 0.0000000e+00 
0.0000000e+00 0.0000000e+00 0.0000000e+00 
0.0000000e+00 0.0000000e+00 0.0000000e+00 
0.0000000e+00 0.0000000e+00 0.0000000e+00 
0.0000000e+00 0.0000000e+00 0.0000000e+00 
0.0000000e+00 0.0000000e+00 0.0000000e+00 
0.0000000e+00 0.0000000e+00 0.0000000e+00 
0.0000000e+00 0.0000000e+00 0.0000000e+00 
0.0000000e+00 0.0000000e+00 0.0000000e+00 
0.0000000e+00 0.0000000e+00 0.0000000e+00 
0.0000000e+00 0.0000000e+00 0.0000000e+00 
0.0000000e+00 0.0000000e+00 0.0000000e+00 
0.0000000e+00 0.0000000e+00 0.0000000e+00 
0.0000000e+00 0.0000000e+00 0.0000000e+00 
0.0000000e+00 0.0000000e+00 0.0000000e+00 
0.0000000e+00 0.0000000e+00 0.0000000e+00 
0.0000000e+00 0.0000000e+00 0.0000000e+00 
0.0000000e+00 0.0000000e+00 0.0000000e+00 
0.0000000e+00 0.0000000e+00 0.0000000e+00 
0.0000000e+00 0.0000000e+00 0.0000000e+00 
0.0000000e+00 0.0000000e+00 0.0000000e+00 
0.0000000e+00 0.0000000e+00 0.0000000e+00 
0.0000000e+00 0.0000000e+00 0.0000000e+00 
0.0000000e+00 0.0000000e+00 0.0000000e+00 
0.0000000e+00 0.0000000e+00 0.0000000e+00 
0.0000000e+00 0.0000000e+00 0.0000000e+00 
0.0000000e+00 0.0000000e+00 0.0000000e+00 
0.0000000e+00 0.0000000e+00 0.0000000e+00 
0.0000000e+00 0.0000000e+00 0.0000000e+00 
0.0000000e+00 0.0000000e+00 0.0000000e+00 
0.0000000e+00 0.0000000e+00 0.0000000e+00 
0.0000000e+00 0.0000000e+00 0.0000000e+00 
0.0000000e+00 0.0000000e+00 0.0000000e+00 
0.0000000e+00 0.0000000e+00 0.0000000e+00 
0.0000000e+00 0.0000000e+00 0.0000000e+00 
0.0000000e+00 0.0000000e+00 0.0000000e+00 
0.0000000e+00 0.0000000e+00 0.0000000e+00 
0.0000000e+00 0.0000000e+00 0.0000000e+00 
0.0000000e+00 0.0000000e+00 0.0000000e+00 
0.0000000e+00 0.0000000e+00 0.0000000e+00 
0.0000000e+00 0.0000000e+00 0.0000000e+00 
0.0000000e+00 0.0000000e+00 0.0000000e+00 
0.0000000e+00 0.0000000e+00 0.0000000e+00 
0.0000000e+00 0.0000000e+00 0.0000000e+00 
0.0000000e+00 0.0000000e+00 0.0000000e+00 
0.0000000e+00 0.0000000e+00 0.0000000e+00 
0.0000000e+00 0.0000000e+00 0.0000000e+00 
0.0000000e+00 0.0000000e+00 0.0000000e+00 
0.0000000e+00 0.0000000e+00 0.0000000e+00 
0.0000000e+00 0.0000000e+00 0.0000000e+00 
0.0000000e+00 0.0000000e+00 0.0000000e+00 
0.0000000e+00 0.0000000e+00 0.0000000e+00 
0.0000000e+00 0.0000000e+00 0.0000000e+00 
0.0000000e+00 0.0000000e+00 0.0000000e+00 
0.0000000e+00 0.0000000e+00 0.0000000e+00 
0.0000000e+00 0.0000000e+00 0.0000000e+00 
0.0000000e+00 0.0000000e+00 0.0000000e+00 
0.0000000e+00 0.0000000e+00 0.0000000e+00 
0.0000000e+00 0.0000000e+00 0.0000000e+00 
0.0000000e+00 0.0000000e+00 0.0000000e+00 
0.0000000e+00 0.0000000e+00 0.0000000e+00 
0.0000000e+00 0.0000000e+00 0.0000000e+00 
0.0000000e+00 0.0000000e+00 0.0000000e+00 
0.0000000e+00 0.0000000e+00 0.0000000e+00 
0.0000000e+00 0.0000000e+00 0.0000000e+00 
0.0000000e+00 0.0000000e+00 0.0000000e+00 
0.0000000e+00 0.0000000e+00 0.0000000e+00 
0.0000000e+00 0.0000000e+00 0.0000000e+00 
0.0000000e+00 0.0000000e+00 0.0000000e+00 
0.0000000e+00 0.0000000e+00 0.0000000e+00 
0.0000000e+00 0.0000000e+00 0.0000000e+00 
0.0000000e+00 0.0000000e+00 0.0000000e+00 
0.0000000e+00 0.0000000e+00 0.0000000e+00 
0.0000000e+00 0.0000000e+00 0.0000000e+00 
0.0000000e+00 0.0000000e+00 0.0000000e+00 
0.0000000e+00 0.0000000e+00 0.0000000e+00 
0.0000000e+00 0.0000000e+00 0.0000000e+00 
0.0000000e+00 0.0000000e+00 0.0000000e+00 
0.0000000e+00 0.0000000e+00 0.0000000e+00 
0.0000000e+00 0.0000000e+00 0.0000000e+00 
0.0000000e+00 0.0000000e+00 0.0000000e+00 
0.0000000e+00 0.0000000e+00 0.0000000e+00 
0.0000000e+00 0.0000000e+00 0.0000000e+00 
0.0000000e+00 0.0000000e+00 0.0000000e+00 
0.0000000e+00 0.0000000e+00 0.0000000e+00 
0.0000000e+00 0.0000000e+00 0.0000000e+00 
0.0000000e+00 0.0000000e+00 0.0000000e+00 
0.0000000e+00 0.0000000e+00 0.0000000e+00 
0.0000000e+00 0.0000000e+00 0.0000000e+00 
0.0000000e+00 0.0000000e+00 0.0000000e+00 
0.0000000e+00 0.0000000e+00 0.0000000e+00 
0.0000000e+00 0.0000000e+00 0.0000000e+00 
0.0000000e+00 0.0000000e+00 0.0000000e+00 
0.0000000e+00 0.0000000e+00 0.0000000e+00 
0.0000000e+00 0.0000000e+00 0.0000000e+00 
0.0000000e+00 0.0000000e+00 0.0000000e+00 
0.0000000e+00 0.0000000e+00 0.0000000e+00 
0.0000000e+00 0.0000000e+00 0.0000000e+00 
0.0000000e+00 0.0000000e+00 0.0000000e+00 
0.0000000e+00 0.0000000e+00 0.0000000e+00 
0.0000000e+00 0.0000000e+00 0.0000000e+00 
0.0000000e+00 0.0000000e+00 0.0000000e+00 
0.0000000e+00 0.0000000e+00 0.0000000e+00 
0.0000000e+00 0.0000000e+00 0.0000000e+00 
0.0000000e+00 0.0000000e+00 0.0000000e+00 
0.0000000e+00 0.0000000e+00 0.0000000e+00 
0.0000000e+00 0.0000000e+00 0.0000000e+00 
0.0000000e+00 0.0000000e+00 0.0000000e+00 
0.0000000e+00 0.0000000e+00 0.0000000e+00 
0.0000000e+00 0.0000000e+00 0.0000000e+00 
0.0000000e+00 0.0000000e+00 0.0000000e+00 
0.0000000e+00 0.0000000e+00 0.0000000e+00 
0.0000000e+00 0.0000000e+00 0.0000000e+00 
0.0000000e+00 0.0000000e+00 0.0000000e+00 
0.0000000e+00 0.0000000e+00 0.0000000e+00 
0.0000000e+00 0.0000000e+00 0.0000000e+00 
0.0000000e+00 0.0000000e+00 0.0000000e+00 
0.0000000e+00 0.0000000e+00 0.0000000e+00 
0.0000000e+00 0.0000000e+00 0.0000000e+00 
0.0000000e+00 0.0000000e+00 0.0000000e+00 
0.0000000e+00 0.0000000e+00 0.0000000e+00 
0.0000000e+00 0.0000000e+00 0.0000000e+00 
0.0000000e+00 0.0000000e+00 0.0000000e+00 
0.0000000e+00 0.0000000e+00 0.0000000e+00 
0.0000000e+00 0.0000000e+00 0.0000000e+00 
0.0000000e+00 0.0000000e+00 0.0000000e+00 
0.0000000e+00 0.0000000e+00 0.0000000e+00 
0.0000000e+00 0.0000000e+00 0.0000000e+00 
0.0000000e+00 0.0000000e+00 0.0000000e+00 
0.0000000e+00 0.0000000e+00 0.0000000e+00 
0.0000000e+00 0.0000000e+00 0.0000000e+00 
0.0000000e+00 0.0000000e+00 0.0000000e+00 
0.0000000e+00 0.0000000e+00 0.0000000e+00 
0.0000000e+00 0.0000000e+00 0.0000000e+00 
0.0000000e+00 0.0000000e+00 0.0000000e+00 
0.0000000e+00 0.0000000e+00 0.0000000e+00 
0.0000000e+00 0.0000000e+00 0.0000000e+00 
0.0000000e+00 0.0000000e+00 0.0000000e+00 
0.0000000e+00 0.0000000e+00 0.0000000e+00 
0.0000000e+00 0.0000000e+00 0.0000000e+00 
0.0000000e+00 0.0000000e+00 0.0000000e+00 
0.0000000e+00 0.0000000e+00 0.0000000e+00 
0.0000000e+00 0.0000000e+00 0.0000000e+00 
0.0000000e+00 0.0000000e+00 0.0000000e+00 
0.0000000e+00 0.0000000e+00 0.0000000e+00 
0.0000000e+00 0.0000000e+00 0.0000000e+00 
0.0000000e+00 0.0000000e+00 0.0000000e+00 
0.0000000e+00 0.0000000e+00 0.0000000e+00 
0.0000000e+00 0.0000000e+00 0.0000000e+00 
0.0000000e+00 0.0000000e+00 0.0000000e+00 
0.0000000e+00 0.0000000e+00 0.0000000e+00 
0.0000000e+00 0.0000000e+00 0.0000000e+00 
0.0000000e+00 0.0000000e+00 0.0000000e+00 
0.0000000e+00 0.0000000e+00 0.0000000e+00 
0.0000000e+00 0.0000000e+00 0.0000000e+00 
0.0000000e+00 0.0000000e+00 0.0000000e+00 
0.0000000e+00 0.0000000e+00 0.0000000e+00 
0.0000000e+00 0.0000000e+00 0.0000000e+00 
0.0000000e+00 0.0000000e+00 0.0000000e+00 
0.0000000e+00 0.0000000e+00 0.0000000e+00 
0.0000000e+00 0.0000000e+00 0.0000000e+00 
0.0000000e+00 0.0000000e+00 0.0000000e+00 
0.0000000e+00 0.0000000e+00 0.0000000e+00 
0.0000000e+00 0.0000000e+00 0.0000000e+00 
0.0000000e+00 0.0000000e+00 0.0000000e+00 
0.0000000e+00 0.0000000e+00 0.0000000e+00 
0.0000000e+00 0.0000000e+00 0.0000000e+00 
0.0000000e+00 0.0000000e+00 0.0000000e+00 
0.0000000e+00 0.0000000e+00 0.0000000e+00 
0.0000000e+00 0.0000000e+00 0.0000000e+00 
0.0000000e+00 0.0000000e+00 0.0000000e+00 
0.0000000e+00 0.0000000e+00 0.0000000e+00 
0.0000000e+00 0.0000000e+00 0.0000000e+00 
0.0000000e+00 0.0000000e+00 0.0000000e+00 
0.0000000e+00 0.0000000e+00 0.0000000e+00 
0.0000000e+00 0.0000000e+00 0.0000000e+00 
0.0000000e+00 0.0000000e+00 0.0000000e+00 
0.0000000e+00 0.0000000e+00 0.0000000e+00 
0.0000000e+00 0.0000000e+00 0.0000000e+00 
0.0000000e+00 0.0000000e+00 0.0000000e+00 
0.0000000e+00 0.0000000e+00 0.0000000e+00 
0.0000000e+00 0.0000000e+00 0.0000000e+00 
0.0000000e+00 0.0000000e+00 0.0000000e+00 
0.0000000e+00 0.0000000e+00 0.0000000e+00 
0.0000000e+00 0.0000000e+00 0.0000000e+00 
0.0000000e+00 0.0000000e+00 0.0000000e+00 
0.0000000e+00 0.0000000e+00 0.0000000e+00 
0.0000000e+00 0.0000000e+00 0.0000000e+00 
0.0000000e+00 0.0000000e+00 0.0000000e+00 
0.0000000e+00 0.0000000e+00 0.0000000e+00 
0.0000000e+00 0.0000000e+00 0.0000000e+00 
0.0000000e+00 0.0000000e+00 0.0000000e+00 
0.0000000e+00 0.0000000e+00 0.0000000e+00 
0.0000000e+00 0.0000000e+00 0.0000000e+00 
0.0000000e+00 0.0000000e+00 0.0000000e+00 
0.0000000e+00 0.0000000e+00 0.0000000e+00 
0.0000000e+00 0.0000000e+00 0.0000000e+00 
0.0000000e+00 0.0000000e+00 0.0000000e+00 
0.0000000e+00 0.0000000e+00 0.0000000e+00 
0.0000000e+00 0.0000000e+00 0.0000000e+00 
0.0000000e+00 0.0000000e+00 0.0000000e+00 
0.0000000e+00 0.0000000e+00 0.0000000e+00 
0.0000000e+00 0.0000000e+00 0.0000000e+00 
0.0000000e+00 0.0000000e+00 0.0000000e+00 
0.0000000e+00 0.0000000e+00 0.0000000e+00 
0.0000000e+00 0.0000000e+00 0.0000000e+00 
0.0000000e+00 0.0000000e+00 0.0000000e+00 
0.0000000e+00 0.0000000e+00 0.0000000e+00 
0.0000000e+00 0.0000000e+00 0.0000000e+00 
0.0000000e+00 0.0000000e+00 0.0000000e+00 
0.0000000e+00 0.0000000e+00 0.0000000e+00 
0.0000000e+00 0.0000000e+00 0.0000000e+00 
0.0000000e+00 0.0000000e+00 0.0000000e+00 
0.0000000e+00 0.0000000e+00 0.0000000e+00 
0.0000000e+00 0.0000000e+00 0.0000000e+00 
0.0000000e+00 0.0000000e+00 0.0000000e+00 
0.0000000e+00 0.0000000e+00 0.0000000e+00 
0.0000000e+00 0.0000000e+00 0.0000000e+00 
0.0000000e+00 0.0000000e+00 0.0000000e+00 
0.0000000e+00 0.0000000e+00 0.0000000e+00 
0.0000000e+00 0.0000000e+00 0.0000000e+00 
0.0000000e+00 0.0000000e+00 0.0000000e+00 
0.0000000e+00 0.0000000e+00 0.0000000e+00 
0.0000000e+00 0.0000000e+00 0.0000000e+00 
0.0000000e+00 0.0000000e+00 0.0000000e+00 
0.0000000e+00 0.0000000e+00 0.0000000e+00 
0.0000000e+00 0.0000000e+00 0.0000000e+00 
0.0000000e+00 0.0000000e+00 0.0000000e+00 
0.0000000e+00 0.0000000e+00 0.0000000e+00 
0.0000000e+00 0.0000000e+00 0.0000000e+00 
0.0000000e+00 0.0000000e+00 0.0000000e+00 
0.0000000e+00 0.0000000e+00 0.0000000e+00 
0.0000000e+00 0.0000000e+00 0.0000000e+00 
0.0000000e+00 0.0000000e+00 0.0000000e+00 
0.0000000e+00 0.0000000e+00 0.0000000e+00 
0.0000000e+00 0.0000000e+00 0.0000000e+00 
0.0000000e+00 0.0000000e+00 0.0000000e+00 
0.0000000e+00 0.0000000e+00 0.0000000e+00 
0.0000000e+00 0.0000000e+00 0.0000000e+00 
0.0000000e+00 0.0000000e+00 0.0000000e+00 
0.0000000e+00 0.0000000e+00 0.0000000e+00 
0.0000000e+00 0.0000000e+00 0.0000000e+00 
0.0000000e+00 0.0000000e+00 0.0000000e+00 
0.0000000e+00 0.0000000e+00 0.0000000e+00 
0.0000000e+00 0.0000000e+00 0.0000000e+00 
0.0000000e+00 0.0000000e+00 0.0000000e+00 
0.0000000e+00 0.0000000e+00 0.0000000e+00 
0.0000000e+00 0.0000000e+00 0.0000000e+00 
0.0000000e+00 0.0000000e+00 0.0000000e+00 
0.0000000e+00 0.0000000e+00 0.0000000e+00 
0.0000000e+00 0.0000000e+00 0.0000000e+00 
0.0000000e+00 0.0000000e+00 0.0000000e+00 
0.0000000e+00 0.0000000e+00 0.0000000e+00 
0.0000000e+00 0.0000000e+00 0.0000000e+00 
0.0000000e+00 0.0000000e+00 0.0000000e+00 
0.0000000e+00 0.0000000e+00 0.0000000e+00 
0.0000000e+00 0.0000000e+00 0.0000000e+00 
0.0000000e+00 0.0000000e+00 0.0000000e+00 
0.0000000e+00 0.0000000e+00 0.0000000e+00 
0.0000000e+00 0.0000000e+00 0.0000000e+00 
0.0000000e+00 0.0000000e+00 0.0000000e+00 
0.0000000e+00 0.0000000e+00 0.0000000e+00 
0.0000000e+00 0.0000000e+00 0.0000000e+00 
0.0000000e+00 0.0000000e+00 0.0000000e+00 
0.0000000e+00 0.0000000e+00 0.0000000e+00 
0.0000000e+00 0.0000000e+00 0.0000000e+00 
0.0000000e+00 0.0000000e+00 0.0000000e+00 
0.0000000e+00 0.0000000e+00 0.0000000e+00 
0.0000000e+00 0.0000000e+00 0.0000000e+00 
0.0000000e+00 0.0000000e+00 0.0000000e+00 
0.0000000e+00 0.0000000e+00 0.0000000e+00 
0.0000000e+00 0.0000000e+00 0.0000000e+00 
0.0000000e+00 0.0000000e+00 0.0000000e+00 
0.0000000e+00 0.0000000e+00 0.0000000e+00 
0.0000000e+00 0.0000000e+00 0.0000000e+00 
0.0000000e+00 0.0000000e+00 0.0000000e+00 
0.0000000e+00 0.0000000e+00 0.0000000e+00 
0.0000000e+00 0.0000000e+00 0.0000000e+00 
0.0000000e+00 0.0000000e+00 0.0000000e+00 
0.0000000e+00 0.0000000e+00 0.0000000e+00 
0.0000000e+00 0.0000000e+00 0.0000000e+00 
0.0000000e+00 0.0000000e+00 0.0000000e+00 
0.0000000e+00 0.0000000e+00 0.0000000e+00 
0.0000000e+00 0.0000000e+00 0.0000000e+00 
0.0000000e+00 0.0000000e+00 0.0000000e+00 
0.0000000e+00 0.0000000e+00 0.0000000e+00 
0.0000000e+00 0.0000000e+00 0.0000000e+00 
0.0000000e+00 0.0000000e+00 0.0000000e+00 
0.0000000e+00 0.0000000e+00 0.0000000e+00 
0.0000000e+00 0.0000000e+00 0.0000000e+00 
0.0000000e+00 0.0000000e+00 0.0000000e+00 
0.0000000e+00 0.0000000e+00 0.0000000e+00 
0.0000000e+00 0.0000000e+00 0.0000000e+00 
0.0000000e+00 0.0000000e+00 0.0000000e+00 
0.0000000e+00 0.0000000e+00 0.0000000e+00 
0.0000000e+00 0.0000000e+00 0.0000000e+00 
0.0000000e+00 0.0000000e+00 0.0000000e+00 
0.0000000e+00 0.0000000e+00 0.0000000e+00 
0.0000000e+00 0.0000000e+00 0.0000000e+00 
0.0000000e+00 0.0000000e+00 0.0000000e+00 
0.0000000e+00 0.0000000e+00 0.0000000e+00 
0.0000000e+00 0.0000000e+00 0.0000000e+00 
0.0000000e+00 0.0000000e+00 0.0000000e+00 
0.0000000e+00 0.0000000e+00 0.0000000e+00 
0.0000000e+00 0.0000000e+00 0.0000000e+00 
0.0000000e+00 0.0000000e+00 0.0000000e+00 
0.0000000e+00 0.0000000e+00 0.0000000e+00 
0.0000000e+00 0.0000000e+00 0.0000000e+00 
0.0000000e+00 0.0000000e+00 0.0000000e+00 
0.0000000e+00 0.0000000e+00 0.0000000e+00 
0.0000000e+00 0.0000000e+00 0.0000000e+00 
0.0000000e+00 0.0000000e+00 0.0000000e+00 
0.0000000e+00 0.0000000e+00 0.0000000e+00 
0.0000000e+00 0.0000000e+00 0.0000000e+00 
0.0000000e+00 0.0000000e+00 0.0000000e+00 
0.0000000e+00 0.0000000e+00 0.0000000e+00 
0.0000000e+00 0.0000000e+00 0.0000000e+00 
0.0000000e+00 0.0000000e+00 0.0000000e+00 
0.0000000e+00 0.0000000e+00 0.0000000e+00 
0.0000000e+00 0.0000000e+00 0.0000000e+00 
0.0000000e+00 0.0000000e+00 0.0000000e+00 
0.0000000e+00 0.0000000e+00 0.0000000e+00 
0.0000000e+00 0.0000000e+00 0.0000000e+00 
0.0000000e+00 0.0000000e+00 0.0000000e+00 
0.0000000e+00 0.0000000e+00 0.0000000e+00 
0.0000000e+00 0.0000000e+00 0.0000000e+00 
0.0000000e+00 0.0000000e+00 0.0000000e+00 
0.0000000e+00 0.0000000e+00 0.0000000e+00 
0.0000000e+00 0.0000000e+00 0.0000000e+00 
0.0000000e+00 0.0000000e+00 0.0000000e+00 
0.0000000e+00 0.0000000e+00 0.0000000e+00 
0.0000000e+00 0.0000000e+00 0.0000000e+00 
0.0000000e+00 0.0000000e+00 0.0000000e+00 
0.0000000e+00 0.0000000e+00 0.0000000e+00 
0.0000000e+00 0.0000000e+00 0.0000000e+00 
0.0000000e+00 0.0000000e+00 0.0000000e+00 
0.0000000e+00 0.0000000e+00 0.0000000e+00 
0.0000000e+00 0.0000000e+00 0.0000000e+00 
0.0000000e+00 0.0000000e+00 0.0000000e+00 
0.0000000e+00 0.0000000e+00 0.0000000e+00 
0.0000000e+00 0.0000000e+00 0.0000000e+00 
0.0000000e+00 0.0000000e+00 0.0000000e+00 
0.0000000e+00 0.0000000e+00 0.0000000e+00 
0.0000000e+00 0.0000000e+00 0.0000000e+00 
0.0000000e+00 0.0000000e+00 0.0000000e+00 
0.0000000e+00 0.0000000e+00 0.0000000e+00 
0.0000000e+00 0.0000000e+00 0.0000000e+00 
0.0000000e+00 0.0000000e+00 0.0000000e+00 
0.0000000e+00 0.0000000e+00 0.0000000e+00 
0.0000000e+00 0.0000000e+00 0.0000000e+00 
0.0000000e+00 0.0000000e+00 0.0000000e+00 
0.0000000e+00 0.0000000e+00 0.0000000e+00 
0.0000000e+00 0.0000000e+00 0.0000000e+00 
0.0000000e+00 0.0000000e+00 0.0000000e+00 
0.0000000e+00 0.0000000e+00 0.0000000e+00 
0.0000000e+00 0.0000000e+00 0.0000000e+00 
0.0000000e+00 0.0000000e+00 0.0000000e+00 
0.0000000e+00 0.0000000e+00 0.0000000e+00 
0.0000000e+00 0.0000000e+00 0.0000000e+00 
0.0000000e+00 0.0000000e+00 0.0000000e+00 
0.0000000e+00 0.0000000e+00 0.0000000e+00 
0.0000000e+00 0.0000000e+00 0.0000000e+00 
0.0000000e+00 0.0000000e+00 0.0000000e+00 
0.0000000e+00 0.0000000e+00 0.0000000e+00 
0.0000000e+00 0.0000000e+00 0.0000000e+00 
0.0000000e+00 0.0000000e+00 0.0000000e+00 
0.0000000e+00 0.0000000e+00 0.0000000e+00 
0.0000000e+00 0.0000000e+00 0.0000000e+00 
0.0000000e+00 0.0000000e+00 0.0000000e+00 
0.0000000e+00 0.0000000e+00 0.0000000e+00 
0.0000000e+00 0.0000000e+00 0.0000000e+00 
0.0000000e+00 0.0000000e+00 0.0000000e+00 
0.0000000e+00 0.0000000e+00 0.0000000e+00 
0.0000000e+00 0.0000000e+00 0.0000000e+00 
0.0000000e+00 0.0000000e+00 0.0000000e+00 
0.0000000e+00 0.0000000e+00 0.0000000e+00 
0.0000000e+00 0.0000000e+00 0.0000000e+00 
0.0000000e+00 0.0000000e+00 0.0000000e+00 
0.0000000e+00 0.0000000e+00 0.0000000e+00 
0.0000000e+00 0.0000000e+00 0.0000000e+00 
0.0000000e+00 0.0000000e+00 0.0000000e+00 
0.0000000e+00 0.0000000e+00 0.0000000e+00 
0.0000000e+00 0.0000000e+00 0.0000000e+00 
0.0000000e+00 0.0000000e+00 0.0000000e+00 
0.0000000e+00 0.0000000e+00 0.0000000e+00 
0.0000000e+00 0.0000000e+00 0.0000000e+00 
0.0000000e+00 0.0000000e+00 0.0000000e+00 
0.0000000e+00 0.0000000e+00 0.0000000e+00 
0.0000000e+00 0.0000000e+00 0.0000000e+00 
0.0000000e+00 0.0000000e+00 0.0000000e+00 
0.0000000e+00 0.0000000e+00 0.0000000e+00 
0.0000000e+00 0.0000000e+00 0.0000000e+00 
0.0000000e+00 0.0000000e+00 0.0000000e+00 
0.0000000e+00 0.0000000e+00 0.0000000e+00 
0.0000000e+00 0.0000000e+00 0.0000000e+00 
0.0000000e+00 0.0000000e+00 0.0000000e+00 
0.0000000e+00 0.0000000e+00 0.0000000e+00 
0.0000000e+00 0.0000000e+00 0.0000000e+00 
0.0000000e+00 0.0000000e+00 0.0000000e+00 
0.0000000e+00 0.0000000e+00 0.0000000e+00 
0.0000000e+00 0.0000000e+00 0.0000000e+00 
0.0000000e+00 0.0000000e+00 0.0000000e+00 
0.0000000e+00 0.0000000e+00 0.0000000e+00 
0.0000000e+00 0.0000000e+00 0.0000000e+00 
0.0000000e+00 0.0000000e+00 0.0000000e+00 
0.0000000e+00 0.0000000e+00 0.0000000e+00 
0.0000000e+00 0.0000000e+00 0.0000000e+00 
0.0000000e+00 0.0000000e+00 0.0000000e+00 
0.0000000e+00 0.0000000e+00 0.0000000e+00 
0.0000000e+00 0.0000000e+00 0.0000000e+00 
0.0000000e+00 0.0000000e+00 0.0000000e+00 
0.0000000e+00 0.0000000e+00 0.0000000e+00 
0.0000000e+00 0.0000000e+00 0.0000000e+00 
0.0000000e+00 0.0000000e+00 0.0000000e+00 
0.0000000e+00 0.0000000e+00 0.0000000e+00 
0.0000000e+00 0.0000000e+00 0.0000000e+00 
0.0000000e+00 0.0000000e+00 0.0000000e+00 
0.0000000e+00 0.0000000e+00 0.0000000e+00 
0.0000000e+00 0.0000000e+00 0.0000000e+00 
0.0000000e+00 0.0000000e+00 0.0000000e+00 
0.0000000e+00 0.0000000e+00 0.0000000e+00 
0.0000000e+00 0.0000000e+00 0.0000000e+00 
0.0000000e+00 0.0000000e+00 0.0000000e+00 
0.0000000e+00 0.0000000e+00 0.0000000e+00 
0.0000000e+00 0.0000000e+00 0.0000000e+00 
0.0000000e+00 0.0000000e+00 0.0000000e+00 
0.0000000e+00 0.0000000e+00 0.0000000e+00 
0.0000000e+00 0.0000000e+00 0.0000000e+00 
0.0000000e+00 0.0000000e+00 0.0000000e+00 
0.0000000e+00 0.0000000e+00 0.0000000e+00 
0.0000000e+00 0.0000000e+00 0.0000000e+00 
0.0000000e+00 0.0000000e+00 0.0000000e+00 
0.0000000e+00 0.0000000e+00 0.0000000e+00 
0.0000000e+00 0.0000000e+00 0.0000000e+00 
0.0000000e+00 0.0000000e+00 0.0000000e+00 
0.0000000e+00 0.0000000e+00 0.0000000e+00 
0.0000000e+00 0.0000000e+00 0.0000000e+00 
0.0000000e+00 0.0000000e+00 0.0000000e+00 
0.0000000e+00 0.0000000e+00 0.0000000e+00 
0.0000000e+00 0.0000000e+00 0.0000000e+00 
0.0000000e+00 0.0000000e+00 0.0000000e+00 
0.0000000e+00 0.0000000e+00 0.0000000e+00 
0.0000000e+00 0.0000000e+00 0.0000000e+00 
0.0000000e+00 0.0000000e+00 0.0000000e+00 
0.0000000e+00 0.0000000e+00 0.0000000e+00 
0.0000000e+00 0.0000000e+00 0.0000000e+00 
0.0000000e+00 0.0000000e+00 0.0000000e+00 
0.0000000e+00 0.0000000e+00 0.0000000e+00 
0.0000000e+00 0.0000000e+00 0.0000000e+00 
0.0000000e+00 0.0000000e+00 0.0000000e+00 
0.0000000e+00 0.0000000e+00 0.0000000e+00 
0.0000000e+00 0.0000000e+00 0.0000000e+00 
0.0000000e+00 0.0000000e+00 0.0000000e+00 
0.0000000e+00 0.0000000e+00 0.0000000e+00 
0.0000000e+00 0.0000000e+00 0.0000000e+00 
0.0000000e+00 0.0000000e+00 0.0000000e+00 
0.0000000e+00 0.0000000e+00 0.0000000e+00 
0.0000000e+00 0.0000000e+00 0.0000000e+00 
0.0000000e+00 0.0000000e+00 0.0000000e+00 
0.0000000e+00 0.0000000e+00 0.0000000e+00 
0.0000000e+00 0.0000000e+00 0.0000000e+00 
0.0000000e+00 0.0000000e+00 0.0000000e+00 
0.0000000e+00 0.0000000e+00 0.0000000e+00 
0.0000000e+00 0.0000000e+00 0.0000000e+00 
0.0000000e+00 0.0000000e+00 0.0000000e+00 
0.0000000e+00 0.0000000e+00 0.0000000e+00 
0.0000000e+00 0.0000000e+00 0.0000000e+00 
0.0000000e+00 0.0000000e+00 0.0000000e+00 
0.0000000e+00 0.0000000e+00 0.0000000e+00 
0.0000000e+00 0.0000000e+00 0.0000000e+00 
0.0000000e+00 0.0000000e+00 0.0000000e+00 
0.0000000e+00 0.0000000e+00 0.0000000e+00 
0.0000000e+00 0.0000000e+00 0.0000000e+00 
0.0000000e+00 0.0000000e+00 0.0000000e+00 
0.0000000e+00 0.0000000e+00 0.0000000e+00 
0.0000000e+00 0.0000000e+00 0.0000000e+00 
0.0000000e+00 0.0000000e+00 0.0000000e+00 
0.0000000e+00 0.0000000e+00 0.0000000e+00 
0.0000000e+00 0.0000000e+00 0.0000000e+00 
0.0000000e+00 0.0000000e+00 0.0000000e+00 
0.0000000e+00 0.0000000e+00 0.0000000e+00 
0.0000000e+00 0.0000000e+00 0.0000000e+00 
0.0000000e+00 0.0000000e+00 0.0000000e+00 
0.0000000e+00 0.0000000e+00 0.0000000e+00 
0.0000000e+00 0.0000000e+00 0.0000000e+00 
0.0000000e+00 0.0000000e+00 0.0000000e+00 
0.0000000e+00 0.0000000e+00 0.0000000e+00 
0.0000000e+00 0.0000000e+00 0.0000000e+00 
0.0000000e+00 0.0000000e+00 0.0000000e+00 
0.0000000e+00 0.0000000e+00 0.0000000e+00 
0.0000000e+00 0.0000000e+00 0.0000000e+00 
0.0000000e+00 0.0000000e+00 0.0000000e+00 
0.0000000e+00 0.0000000e+00 0.0000000e+00 
0.0000000e+00 0.0000000e+00 0.0000000e+00 
0.0000000e+00 0.0000000e+00 0.0000000e+00 
0.0000000e+00 0.0000000e+00 0.0000000e+00 
0.0000000e+00 0.0000000e+00 0.0000000e+00 
0.0000000e+00 0.0000000e+00 0.0000000e+00 
0.0000000e+00 0.0000000e+00 0.0000000e+00 
0.0000000e+00 0.0000000e+00 0.0000000e+00 
0.0000000e+00 0.0000000e+00 0.0000000e+00 
0.0000000e+00 0.0000000e+00 0.0000000e+00 
0.0000000e+00 0.0000000e+00 0.0000000e+00 
0.0000000e+00 0.0000000e+00 0.0000000e+00 
0.0000000e+00 0.0000000e+00 0.0000000e+00 
0.0000000e+00 0.0000000e+00 0.0000000e+00 
0.0000000e+00 0.0000000e+00 0.0000000e+00 
0.0000000e+00 0.0000000e+00 0.0000000e+00 
0.0000000e+00 0.0000000e+00 0.0000000e+00 
0.0000000e+00 0.0000000e+00 0.0000000e+00 
0.0000000e+00 0.0000000e+00 0.0000000e+00 
0.0000000e+00 0.0000000e+00 0.0000000e+00 
0.0000000e+00 0.0000000e+00 0.0000000e+00 
0.0000000e+00 0.0000000e+00 0.0000000e+00 
0.0000000e+00 0.0000000e+00 0.0000000e+00 
0.0000000e+00 0.0000000e+00 0.0000000e+00 
0.0000000e+00 0.0000000e+00 0.0000000e+00 
0.0000000e+00 0.0000000e+00 0.0000000e+00 
0.0000000e+00 0.0000000e+00 0.0000000e+00 
0.0000000e+00 0.0000000e+00 0.0000000e+00 
0.0000000e+00 0.0000000e+00 0.0000000e+00 
0.0000000e+00 0.0000000e+00 0.0000000e+00 
0.0000000e+00 0.0000000e+00 0.0000000e+00 
0.0000000e+00 0.0000000e+00 0.0000000e+00 
0.0000000e+00 0.0000000e+00 0.0000000e+00 
0.0000000e+00 0.0000000e+00 0.0000000e+00 
0.0000000e+00 0.0000000e+00 0.0000000e+00 
0.0000000e+00 0.0000000e+00 0.0000000e+00 
0.0000000e+00 0.0000000e+00 0.0000000e+00 
0.0000000e+00 0.0000000e+00 0.0000000e+00 
0.0000000e+00 0.0000000e+00 0.0000000e+00 
0.0000000e+00 0.0000000e+00 0.0000000e+00 
0.0000000e+00 0.0000000e+00 0.0000000e+00 
0.0000000e+00 0.0000000e+00 0.0000000e+00 
0.0000000e+00 0.0000000e+00 0.0000000e+00 
0.0000000e+00 0.0000000e+00 0.0000000e+00 
0.0000000e+00 0.0000000e+00 0.0000000e+00 
0.0000000e+00 0.0000000e+00 0.0000000e+00 
0.0000000e+00 0.0000000e+00 0.0000000e+00 
0.0000000e+00 0.0000000e+00 0.0000000e+00 
0.0000000e+00 0.0000000e+00 0.0000000e+00 
0.0000000e+00 0.0000000e+00 0.0000000e+00 
0.0000000e+00 0.0000000e+00 0.0000000e+00 
0.0000000e+00 0.0000000e+00 0.0000000e+00 
0.0000000e+00 0.0000000e+00 0.0000000e+00 
0.0000000e+00 0.0000000e+00 0.0000000e+00 
0.0000000e+00 0.0000000e+00 0.0000000e+00 
0.0000000e+00 0.0000000e+00 0.0000000e+00 
0.0000000e+00 0.0000000e+00 0.0000000e+00 
0.0000000e+00 0.0000000e+00 0.0000000e+00 
0.0000000e+00 0.0000000e+00 0.0000000e+00 
0.0000000e+00 0.0000000e+00 0.0000000e+00 
0.0000000e+00 0.0000000e+00 0.0000000e+00 
0.0000000e+00 0.0000000e+00 0.0000000e+00 
0.0000000e+00 0.0000000e+00 0.0000000e+00 
0.0000000e+00 0.0000000e+00 0.0000000e+00 
0.0000000e+00 0.0000000e+00 0.0000000e+00 
0.0000000e+00 0.0000000e+00 0.0000000e+00 
0.0000000e+00 0.0000000e+00 0.0000000e+00 
0.0000000e+00 0.0000000e+00 0.0000000e+00 
0.0000000e+00 0.0000000e+00 0.0000000e+00 
0.0000000e+00 0.0000000e+00 0.0000000e+00 
0.0000000e+00 0.0000000e+00 0.0000000e+00 
0.0000000e+00 0.0000000e+00 0.0000000e+00 
0.0000000e+00 0.0000000e+00 0.0000000e+00 
0.0000000e+00 0.0000000e+00 0.0000000e+00 
0.0000000e+00 0.0000000e+00 0.0000000e+00 
0.0000000e+00 0.0000000e+00 0.0000000e+00 
0.0000000e+00 0.0000000e+00 0.0000000e+00 
0.0000000e+00 0.0000000e+00 0.0000000e+00 
0.0000000e+00 0.0000000e+00 0.0000000e+00 
0.0000000e+00 0.0000000e+00 0.0000000e+00 
0.0000000e+00 0.0000000e+00 0.0000000e+00 
0.0000000e+00 0.0000000e+00 0.0000000e+00 
0.0000000e+00 0.0000000e+00 0.0000000e+00 
0.0000000e+00 0.0000000e+00 0.0000000e+00 
0.0000000e+00 0.0000000e+00 0.0000000e+00 
0.0000000e+00 0.0000000e+00 0.0000000e+00 
0.0000000e+00 0.0000000e+00 0.0000000e+00 
0.0000000e+00 0.0000000e+00 0.0000000e+00 
0.0000000e+00 0.0000000e+00 0.0000000e+00 
0.0000000e+00 0.0000000e+00 0.0000000e+00 
0.0000000e+00 0.0000000e+00 0.0000000e+00 
0.0000000e+00 0.0000000e+00 0.0000000e+00 
0.0000000e+00 0.0000000e+00 0.0000000e+00 
0.0000000e+00 0.0000000e+00 0.0000000e+00 
0.0000000e+00 0.0000000e+00 0.0000000e+00 
0.0000000e+00 0.0000000e+00 0.0000000e+00 
0.0000000e+00 0.0000000e+00 0.0000000e+00 
0.0000000e+00 0.0000000e+00 0.0000000e+00 
0.0000000e+00 0.0000000e+00 0.0000000e+00 
0.0000000e+00 0.0000000e+00 0.0000000e+00 
0.0000000e+00 0.0000000e+00 0.0000000e+00 
0.0000000e+00 0.0000000e+00 0.0000000e+00 
0.0000000e+00 0.0000000e+00 0.0000000e+00 
0.0000000e+00 0.0000000e+00 0.0000000e+00 
0.0000000e+00 0.0000000e+00 0.0000000e+00 
0.0000000e+00 0.0000000e+00 0.0000000e+00 
0.0000000e+00 0.0000000e+00 0.0000000e+00 
0.0000000e+00 0.0000000e+00 0.0000000e+00 
0.0000000e+00 0.0000000e+00 0.0000000e+00 
0.0000000e+00 0.0000000e+00 0.0000000e+00 
0.0000000e+00 0.0000000e+00 0.0000000e+00 
0.0000000e+00 0.0000000e+00 0.0000000e+00 
0.0000000e+00 0.0000000e+00 0.0000000e+00 
0.0000000e+00 0.0000000e+00 0.0000000e+00 
0.0000000e+00 0.0000000e+00 0.0000000e+00 
0.0000000e+00 0.0000000e+00 0.0000000e+00 
0.0000000e+00 0.0000000e+00 0.0000000e+00 
0.0000000e+00 0.0000000e+00 0.0000000e+00 
0.0000000e+00 0.0000000e+00 0.0000000e+00 
0.0000000e+00 0.0000000e+00 0.0000000e+00 
0.0000000e+00 0.0000000e+00 0.0000000e+00 
0.0000000e+00 0.0000000e+00 0.0000000e+00 
0.0000000e+00 0.0000000e+00 0.0000000e+00 
0.0000000e+00 0.0000000e+00 0.0000000e+00 
0.0000000e+00 0.0000000e+00 0.0000000e+00 
0.0000000e+00 0.0000000e+00 0.0000000e+00 
0.0000000e+00 0.0000000e+00 0.0000000e+00 
0.0000000e+00 0.0000000e+00 0.0000000e+00 
0.0000000e+00 0.0000000e+00 0.0000000e+00 
0.0000000e+00 0.0000000e+00 0.0000000e+00 
0.0000000e+00 0.0000000e+00 0.0000000e+00 
0.0000000e+00 0.0000000e+00 0.0000000e+00 
0.0000000e+00 0.0000000e+00 0.0000000e+00 
0.0000000e+00 0.0000000e+00 0.0000000e+00 
0.0000000e+00 0.0000000e+00 0.0000000e+00 
0.0000000e+00 0.0000000e+00 0.0000000e+00 
0.0000000e+00 0.0000000e+00 0.0000000e+00 
0.0000000e+00 0.0000000e+00 0.0000000e+00 
0.0000000e+00 0.0000000e+00 0.0000000e+00 
0.0000000e+00 0.0000000e+00 0.0000000e+00 
0.0000000e+00 0.0000000e+00 0.0000000e+00 
0.0000000e+00 0.0000000e+00 0.0000000e+00 
0.0000000e+00 0.0000000e+00 0.0000000e+00 
0.0000000e+00 0.0000000e+00 0.0000000e+00 
0.0000000e+00 0.0000000e+00 0.0000000e+00 
0.0000000e+00 0.0000000e+00 0.0000000e+00 
0.0000000e+00 0.0000000e+00 0.0000000e+00 
0.0000000e+00 0.0000000e+00 0.0000000e+00 
0.0000000e+00 0.0000000e+00 0.0000000e+00 
0.0000000e+00 0.0000000e+00 0.0000000e+00 
0.0000000e+00 0.0000000e+00 0.0000000e+00 
0.0000000e+00 0.0000000e+00 0.0000000e+00 
0.0000000e+00 0.0000000e+00 0.0000000e+00 
0.0000000e+00 0.0000000e+00 0.0000000e+00 
0.0000000e+00 0.0000000e+00 0.0000000e+00 
0.0000000e+00 0.0000000e+00 0.0000000e+00 
0.0000000e+00 0.0000000e+00 0.0000000e+00 
0.0000000e+00 0.0000000e+00 0.0000000e+00 
0.0000000e+00 0.0000000e+00 0.0000000e+00 
0.0000000e+00 0.0000000e+00 0.0000000e+00 
0.0000000e+00 0.0000000e+00 0.0000000e+00 
0.0000000e+00 0.0000000e+00 0.0000000e+00 
0.0000000e+00 0.0000000e+00 0.0000000e+00 
0.0000000e+00 0.0000000e+00 0.0000000e+00 
0.0000000e+00 0.0000000e+00 0.0000000e+00 
0.0000000e+00 0.0000000e+00 0.0000000e+00 
0.0000000e+00 0.0000000e+00 0.0000000e+00 
0.0000000e+00 0.0000000e+00 0.0000000e+00 
0.0000000e+00 0.0000000e+00 0.0000000e+00 
0.0000000e+00 0.0000000e+00 0.0000000e+00 
0.0000000e+00 0.0000000e+00 0.0000000e+00 
0.0000000e+00 0.0000000e+00 0.0000000e+00 
0.0000000e+00 0.0000000e+00 0.0000000e+00 
0.0000000e+00 0.0000000e+00 0.0000000e+00 
0.0000000e+00 0.0000000e+00 0.0000000e+00 
0.0000000e+00 0.0000000e+00 0.0000000e+00 
0.0000000e+00 0.0000000e+00 0.0000000e+00 
0.0000000e+00 0.0000000e+00 0.0000000e+00 
0.0000000e+00 0.0000000e+00 0.0000000e+00 
0.0000000e+00 0.0000000e+00 0.0000000e+00 
0.0000000e+00 0.0000000e+00 0.0000000e+00 
0.0000000e+00 0.0000000e+00 0.0000000e+00 
0.0000000e+00 0.0000000e+00 0.0000000e+00 
0.0000000e+00 0.0000000e+00 0.0000000e+00 
0.0000000e+00 0.0000000e+00 0.0000000e+00 
0.0000000e+00 0.0000000e+00 0.0000000e+00 
0.0000000e+00 0.0000000e+00 0.0000000e+00 
0.0000000e+00 0.0000000e+00 0.0000000e+00 
0.0000000e+00 0.0000000e+00 0.0000000e+00 
0.0000000e+00 0.0000000e+00 0.0000000e+00 
0.0000000e+00 0.0000000e+00 0.0000000e+00 
0.0000000e+00 0.0000000e+00 0.0000000e+00 
0.0000000e+00 0.0000000e+00 0.0000000e+00 
0.0000000e+00 0.0000000e+00 0.0000000e+00 
0.0000000e+00 0.0000000e+00 0.0000000e+00 
0.0000000e+00 0.0000000e+00 0.0000000e+00 
0.0000000e+00 0.0000000e+00 0.0000000e+00 
0.0000000e+00 0.0000000e+00 0.0000000e+00 
0.0000000e+00 0.0000000e+00 0.0000000e+00 
0.0000000e+00 0.0000000e+00 0.0000000e+00 
0.0000000e+00 0.0000000e+00 0.0000000e+00 
0.0000000e+00 0.0000000e+00 0.0000000e+00 
0.0000000e+00 0.0000000e+00 0.0000000e+00 
0.0000000e+00 0.0000000e+00 0.0000000e+00 
0.0000000e+00 0.0000000e+00 0.0000000e+00 
0.0000000e+00 0.0000000e+00 0.0000000e+00 
0.0000000e+00 0.0000000e+00 0.0000000e+00 
0.0000000e+00 0.0000000e+00 0.0000000e+00 
0.0000000e+00 0.0000000e+00 0.0000000e+00 
0.0000000e+00 0.0000000e+00 0.0000000e+00 
0.0000000e+00 0.0000000e+00 0.0000000e+00 
0.0000000e+00 0.0000000e+00 0.0000000e+00 
0.0000000e+00 0.0000000e+00 0.0000000e+00 
0.0000000e+00 0.0000000e+00 0.0000000e+00 
0.0000000e+00 0.0000000e+00 0.0000000e+00 
0.0000000e+00 0.0000000e+00 0.0000000e+00 
0.0000000e+00 0.0000000e+00 0.0000000e+00 
0.0000000e+00 0.0000000e+00 0.0000000e+00 
0.0000000e+00 0.0000000e+00 0.0000000e+00 
0.0000000e+00 0.0000000e+00 0.0000000e+00 
0.0000000e+00 0.0000000e+00 0.0000000e+00 
0.0000000e+00 0.0000000e+00 0.0000000e+00 
0.0000000e+00 0.0000000e+00 0.0000000e+00 
0.0000000e+00 0.0000000e+00 0.0000000e+00 
0.0000000e+00 0.0000000e+00 0.0000000e+00 
0.0000000e+00 0.0000000e+00 0.0000000e+00 
0.0000000e+00 0.0000000e+00 0.0000000e+00 
0.0000000e+00 0.0000000e+00 0.0000000e+00 
0.0000000e+00 0.0000000e+00 0.0000000e+00 
0.0000000e+00 0.0000000e+00 0.0000000e+00 
0.0000000e+00 0.0000000e+00 0.0000000e+00 
0.0000000e+00 0.0000000e+00 0.0000000e+00 
0.0000000e+00 0.0000000e+00 0.0000000e+00 
0.0000000e+00 0.0000000e+00 0.0000000e+00 
0.0000000e+00 0.0000000e+00 0.0000000e+00 
0.0000000e+00 0.0000000e+00 0.0000000e+00 
0.0000000e+00 0.0000000e+00 0.0000000e+00 
0.0000000e+00 0.0000000e+00 0.0000000e+00 
0.0000000e+00 0.0000000e+00 0.0000000e+00 
0.0000000e+00 0.0000000e+00 0.0000000e+00 
0.0000000e+00 0.0000000e+00 0.0000000e+00 
0.0000000e+00 0.0000000e+00 0.0000000e+00 
0.0000000e+00 0.0000000e+00 0.0000000e+00 
0.0000000e+00 0.0000000e+00 0.0000000e+00 
0.0000000e+00 0.0000000e+00 0.0000000e+00 
0.0000000e+00 0.0000000e+00 0.0000000e+00 
0.0000000e+00 0.0000000e+00 0.0000000e+00 
0.0000000e+00 0.0000000e+00 0.0000000e+00 
0.0000000e+00 0.0000000e+00 0.0000000e+00 
0.0000000e+00 0.0000000e+00 0.0000000e+00 
0.0000000e+00 0.0000000e+00 0.0000000e+00 
0.0000000e+00 0.0000000e+00 0.0000000e+00 
0.0000000e+00 0.0000000e+00 0.0000000e+00 
0.0000000e+00 0.0000000e+00 0.0000000e+00 
0.0000000e+00 0.0000000e+00 0.0000000e+00 
0.0000000e+00 0.0000000e+00 0.0000000e+00 
0.0000000e+00 0.0000000e+00 0.0000000e+00 
0.0000000e+00 0.0000000e+00 0.0000000e+00 
0.0000000e+00 0.0000000e+00 0.0000000e+00 
0.0000000e+00 0.0000000e+00 0.0000000e+00 
0.0000000e+00 0.0000000e+00 0.0000000e+00 
0.0000000e+00 0.0000000e+00 0.0000000e+00 
0.0000000e+00 0.0000000e+00 0.0000000e+00 
0.0000000e+00 0.0000000e+00 0.0000000e+00 
0.0000000e+00 0.0000000e+00 0.0000000e+00 
0.0000000e+00 0.0000000e+00 0.0000000e+00 
0.0000000e+00 0.0000000e+00 0.0000000e+00 
0.0000000e+00 0.0000000e+00 0.0000000e+00 
0.0000000e+00 0.0000000e+00 0.0000000e+00 
0.0000000e+00 0.0000000e+00 0.0000000e+00 
0.0000000e+00 0.0000000e+00 0.0000000e+00 
0.0000000e+00 0.0000000e+00 0.0000000e+00 
0.0000000e+00 0.0000000e+00 0.0000000e+00 
0.0000000e+00 0.0000000e+00 0.0000000e+00 
0.0000000e+00 0.0000000e+00 0.0000000e+00 
0.0000000e+00 0.0000000e+00 0.0000000e+00 
0.0000000e+00 0.0000000e+00 0.0000000e+00 
0.0000000e+00 0.0000000e+00 0.0000000e+00 
0.0000000e+00 0.0000000e+00 0.0000000e+00 
0.0000000e+00 0.0000000e+00 0.0000000e+00 
0.0000000e+00 0.0000000e+00 0.0000000e+00 
0.0000000e+00 0.0000000e+00 0.0000000e+00 
0.0000000e+00 0.0000000e+00 0.0000000e+00 
0.0000000e+00 0.0000000e+00 0.0000000e+00 
0.0000000e+00 0.0000000e+00 0.0000000e+00 
0.0000000e+00 0.0000000e+00 0.0000000e+00 
0.0000000e+00 0.0000000e+00 0.0000000e+00 
0.0000000e+00 0.0000000e+00 0.0000000e+00 
0.0000000e+00 0.0000000e+00 0.0000000e+00 
0.0000000e+00 0.0000000e+00 0.0000000e+00 
0.0000000e+00 0.0000000e+00 0.0000000e+00 
0.0000000e+00 0.0000000e+00 0.0000000e+00 
0.0000000e+00 0.0000000e+00 0.0000000e+00 
0.0000000e+00 0.0000000e+00 0.0000000e+00 
0.0000000e+00 0.0000000e+00 0.0000000e+00 
0.0000000e+00 0.0000000e+00 0.0000000e+00 
0.0000000e+00 0.0000000e+00 0.0000000e+00 
0.0000000e+00 0.0000000e+00 0.0000000e+00 
0.0000000e+00 0.0000000e+00 0.0000000e+00 
0.0000000e+00 0.0000000e+00 0.0000000e+00 
0.0000000e+00 0.0000000e+00 0.0000000e+00 
0.0000000e+00 0.0000000e+00 0.0000000e+00 
0.0000000e+00 0.0000000e+00 0.0000000e+00 
0.0000000e+00 0.0000000e+00 0.0000000e+00 
0.0000000e+00 0.0000000e+00 0.0000000e+00 
0.0000000e+00 0.0000000e+00 0.0000000e+00 
0.0000000e+00 0.0000000e+00 0.0000000e+00 
0.0000000e+00 0.0000000e+00 0.0000000e+00 
0.0000000e+00 0.0000000e+00 0.0000000e+00 
0.0000000e+00 0.0000000e+00 0.0000000e+00 
0.0000000e+00 0.0000000e+00 0.0000000e+00 
0.0000000e+00 0.0000000e+00 0.0000000e+00 
0.0000000e+00 0.0000000e+00 0.0000000e+00 
0.0000000e+00 0.0000000e+00 0.0000000e+00 
0.0000000e+00 0.0000000e+00 0.0000000e+00 
0.0000000e+00 0.0000000e+00 0.0000000e+00 
0.0000000e+00 0.0000000e+00 0.0000000e+00 
0.0000000e+00 0.0000000e+00 0.0000000e+00 
0.0000000e+00 0.0000000e+00 0.0000000e+00 
0.0000000e+00 0.0000000e+00 0.0000000e+00 
0.0000000e+00 0.0000000e+00 0.0000000e+00 
0.0000000e+00 0.0000000e+00 0.0000000e+00 
0.0000000e+00 0.0000000e+00 0.0000000e+00 
0.0000000e+00 0.0000000e+00 0.0000000e+00 
0.0000000e+00 0.0000000e+00 0.0000000e+00 
0.0000000e+00 0.0000000e+00 0.0000000e+00 
0.0000000e+00 0.0000000e+00 0.0000000e+00 
0.0000000e+00 0.0000000e+00 0.0000000e+00 
0.0000000e+00 0.0000000e+00 0.0000000e+00 
0.0000000e+00 0.0000000e+00 0.0000000e+00 
0.0000000e+00 0.0000000e+00 0.0000000e+00 
0.0000000e+00 0.0000000e+00 0.0000000e+00 
0.0000000e+00 0.0000000e+00 0.0000000e+00 
0.0000000e+00 0.0000000e+00 0.0000000e+00 
0.0000000e+00 0.0000000e+00 0.0000000e+00 
0.0000000e+00 0.0000000e+00 0.0000000e+00 
0.0000000e+00 0.0000000e+00 0.0000000e+00 
0.0000000e+00 0.0000000e+00 0.0000000e+00 
0.0000000e+00 0.0000000e+00 0.0000000e+00 
0.0000000e+00 0.0000000e+00 0.0000000e+00 
0.0000000e+00 0.0000000e+00 0.0000000e+00 
0.0000000e+00 0.0000000e+00 0.0000000e+00 
0.0000000e+00 0.0000000e+00 0.0000000e+00 
0.0000000e+00 0.0000000e+00 0.0000000e+00 
0.0000000e+00 0.0000000e+00 0.0000000e+00 
0.0000000e+00 0.0000000e+00 0.0000000e+00 
0.0000000e+00 0.0000000e+00 0.0000000e+00 
0.0000000e+00 0.0000000e+00 0.0000000e+00 
0.0000000e+00 0.0000000e+00 0.0000000e+00 
0.0000000e+00 0.0000000e+00 0.0000000e+00 
0.0000000e+00 0.0000000e+00 0.0000000e+00 
0.0000000e+00 0.0000000e+00 0.0000000e+00 
0.0000000e+00 0.0000000e+00 0.0000000e+00 
0.0000000e+00 0.0000000e+00 0.0000000e+00 
0.0000000e+00 0.0000000e+00 0.0000000e+00 
0.0000000e+00 0.0000000e+00 0.0000000e+00 
0.0000000e+00 0.0000000e+00 0.0000000e+00 
0.0000000e+00 0.0000000e+00 0.0000000e+00 
0.0000000e+00 0.0000000e+00 0.0000000e+00 
0.0000000e+00 0.0000000e+00 0.0000000e+00 
0.0000000e+00 0.0000000e+00 0.0000000e+00 
0.0000000e+00 0.0000000e+00 0.0000000e+00 
0.0000000e+00 0.0000000e+00 0.0000000e+00 
0.0000000e+00 0.0000000e+00 0.0000000e+00 
0.0000000e+00 0.0000000e+00 0.0000000e+00 
0.0000000e+00 0.0000000e+00 0.0000000e+00 
0.0000000e+00 0.0000000e+00 0.0000000e+00 
0.0000000e+00 0.0000000e+00 0.0000000e+00 
0.0000000e+00 0.0000000e+00 0.0000000e+00 
0.0000000e+00 0.0000000e+00 0.0000000e+00 
0.0000000e+00 0.0000000e+00 0.0000000e+00 
0.0000000e+00 0.0000000e+00 0.0000000e+00 
0.0000000e+00 0.0000000e+00 0.0000000e+00 
0.0000000e+00 0.0000000e+00 0.0000000e+00 
0.0000000e+00 0.0000000e+00 0.0000000e+00 
0.0000000e+00 0.0000000e+00 0.0000000e+00 
0.0000000e+00 0.0000000e+00 0.0000000e+00 
0.0000000e+00 0.0000000e+00 0.0000000e+00 
0.0000000e+00 0.0000000e+00 0.0000000e+00 
0.0000000e+00 0.0000000e+00 0.0000000e+00 
0.0000000e+00 0.0000000e+00 0.0000000e+00 
0.0000000e+00 0.0000000e+00 0.0000000e+00 
0.0000000e+00 0.0000000e+00 0.0000000e+00 
0.0000000e+00 0.0000000e+00 0.0000000e+00 
0.0000000e+00 0.0000000e+00 0.0000000e+00 
0.0000000e+00 0.0000000e+00 0.0000000e+00 
0.0000000e+00 0.0000000e+00 0.0000000e+00 
0.0000000e+00 0.0000000e+00 0.0000000e+00 
0.0000000e+00 0.0000000e+00 0.0000000e+00 
0.0000000e+00 0.0000000e+00 0.0000000e+00 
0.0000000e+00 0.0000000e+00 0.0000000e+00 
0.0000000e+00 0.0000000e+00 0.0000000e+00 
0.0000000e+00 0.0000000e+00 0.0000000e+00 
0.0000000e+00 0.0000000e+00 0.0000000e+00 
0.0000000e+00 0.0000000e+00 0.0000000e+00 
0.0000000e+00 0.0000000e+00 0.0000000e+00 
0.0000000e+00 0.0000000e+00 0.0000000e+00 
0.0000000e+00 0.0000000e+00 0.0000000e+00 
0.0000000e+00 0.0000000e+00 0.0000000e+00 
0.0000000e+00 0.0000000e+00 0.0000000e+00 
0.0000000e+00 0.0000000e+00 0.0000000e+00 
0.0000000e+00 0.0000000e+00 0.0000000e+00 
0.0000000e+00 0.0000000e+00 0.0000000e+00 
0.0000000e+00 0.0000000e+00 0.0000000e+00 
0.0000000e+00 0.0000000e+00 0.0000000e+00 
0.0000000e+00 0.0000000e+00 0.0000000e+00 
0.0000000e+00 0.0000000e+00 0.0000000e+00 
0.0000000e+00 0.0000000e+00 0.0000000e+00 
0.0000000e+00 0.0000000e+00 0.0000000e+00 
0.0000000e+00 0.0000000e+00 0.0000000e+00 
0.0000000e+00 0.0000000e+00 0.0000000e+00 
0.0000000e+00 0.0000000e+00 0.0000000e+00 
0.0000000e+00 0.0000000e+00 0.0000000e+00 
0.0000000e+00 0.0000000e+00 0.0000000e+00 
0.0000000e+00 0.0000000e+00 0.0000000e+00 
0.0000000e+00 0.0000000e+00 0.0000000e+00 
0.0000000e+00 0.0000000e+00 0.0000000e+00 
0.0000000e+00 0.0000000e+00 0.0000000e+00 
0.0000000e+00 0.0000000e+00 0.0000000e+00 
0.0000000e+00 0.0000000e+00 0.0000000e+00 
0.0000000e+00 0.0000000e+00 0.0000000e+00 
0.0000000e+00 0.0000000e+00 0.0000000e+00 
0.0000000e+00 0.0000000e+00 0.0000000e+00 
0.0000000e+00 0.0000000e+00 0.0000000e+00 
0.0000000e+00 0.0000000e+00 0.0000000e+00 
0.0000000e+00 0.0000000e+00 0.0000000e+00 
0.0000000e+00 0.0000000e+00 0.0000000e+00 
0.0000000e+00 0.0000000e+00 0.0000000e+00 
0.0000000e+00 0.0000000e+00 0.0000000e+00 
0.0000000e+00 0.0000000e+00 0.0000000e+00 
0.0000000e+00 0.0000000e+00 0.0000000e+00 
0.0000000e+00 0.0000000e+00 0.0000000e+00 
0.0000000e+00 0.0000000e+00 0.0000000e+00 
0.0000000e+00 0.0000000e+00 0.0000000e+00 
0.0000000e+00 0.0000000e+00 0.0000000e+00 
0.0000000e+00 0.0000000e+00 0.0000000e+00 
0.0000000e+00 0.0000000e+00 0.0000000e+00 
0.0000000e+00 0.0000000e+00 0.0000000e+00 
0.0000000e+00 0.0000000e+00 0.0000000e+00 
0.0000000e+00 0.0000000e+00 0.0000000e+00 
0.0000000e+00 0.0000000e+00 0.0000000e+00 
0.0000000e+00 0.0000000e+00 0.0000000e+00 
0.0000000e+00 0.0000000e+00 0.0000000e+00 
0.0000000e+00 0.0000000e+00 0.0000000e+00 
0.0000000e+00 0.0000000e+00 0.0000000e+00 
0.0000000e+00 0.0000000e+00 0.0000000e+00 
0.0000000e+00 0.0000000e+00 0.0000000e+00 
0.0000000e+00 0.0000000e+00 0.0000000e+00 
0.0000000e+00 0.0000000e+00 0.0000000e+00 
0.0000000e+00 0.0000000e+00 0.0000000e+00 
0.0000000e+00 0.0000000e+00 0.0000000e+00 
0.0000000e+00 0.0000000e+00 0.0000000e+00 
0.0000000e+00 0.0000000e+00 0.0000000e+00 
0.0000000e+00 0.0000000e+00 0.0000000e+00 
0.0000000e+00 0.0000000e+00 0.0000000e+00 
0.0000000e+00 0.0000000e+00 0.0000000e+00 
0.0000000e+00 0.0000000e+00 0.0000000e+00 
0.0000000e+00 0.0000000e+00 0.0000000e+00 
0.0000000e+00 0.0000000e+00 0.0000000e+00 
0.0000000e+00 0.0000000e+00 0.0000000e+00 
0.0000000e+00 0.0000000e+00 0.0000000e+00 
0.0000000e+00 0.0000000e+00 0.0000000e+00 
0.0000000e+00 0.0000000e+00 0.0000000e+00 
0.0000000e+00 0.0000000e+00 0.0000000e+00 
0.0000000e+00 0.0000000e+00 0.0000000e+00 
0.0000000e+00 0.0000000e+00 0.0000000e+00 
0.0000000e+00 0.0000000e+00 0.0000000e+00 
0.0000000e+00 0.0000000e+00 0.0000000e+00 
0.0000000e+00 0.0000000e+00 0.0000000e+00 
0.0000000e+00 0.0000000e+00 0.0000000e+00 
0.0000000e+00 0.0000000e+00 0.0000000e+00 
0.0000000e+00 0.0000000e+00 0.0000000e+00 
0.0000000e+00 0.0000000e+00 0.0000000e+00 
0.0000000e+00 0.0000000e+00 0.0000000e+00 
0.0000000e+00 0.0000000e+00 0.0000000e+00 
0.0000000e+00 0.0000000e+00 0.0000000e+00 
0.0000000e+00 0.0000000e+00 0.0000000e+00 
0.0000000e+00 0.0000000e+00 0.0000000e+00 
0.0000000e+00 0.0000000e+00 0.0000000e+00 
0.0000000e+00 0.0000000e+00 0.0000000e+00 
0.0000000e+00 0.0000000e+00 0.0000000e+00 
0.0000000e+00 0.0000000e+00 0.0000000e+00 
0.0000000e+00 0.0000000e+00 0.0000000e+00 
0.0000000e+00 0.0000000e+00 0.0000000e+00 
0.0000000e+00 0.0000000e+00 0.0000000e+00 
0.0000000e+00 0.0000000e+00 0.0000000e+00 
0.0000000e+00 0.0000000e+00 0.0000000e+00 
0.0000000e+00 0.0000000e+00 0.0000000e+00 
0.0000000e+00 0.0000000e+00 0.0000000e+00 
0.0000000e+00 0.0000000e+00 0.0000000e+00 
0.0000000e+00 0.0000000e+00 0.0000000e+00 
0.0000000e+00 0.0000000e+00 0.0000000e+00 
0.0000000e+00 0.0000000e+00 0.0000000e+00 
0.0000000e+00 0.0000000e+00 0.0000000e+00 
0.0000000e+00 0.0000000e+00 0.0000000e+00 
0.0000000e+00 0.0000000e+00 0.0000000e+00 
0.0000000e+00 0.0000000e+00 0.0000000e+00 
0.0000000e+00 0.0000000e+00 0.0000000e+00 
0.0000000e+00 0.0000000e+00 0.0000000e+00 
0.0000000e+00 0.0000000e+00 0.0000000e+00 
0.0000000e+00 0.0000000e+00 0.0000000e+00 
0.0000000e+00 0.0000000e+00 0.0000000e+00 
0.0000000e+00 0.0000000e+00 0.0000000e+00 
0.0000000e+00 0.0000000e+00 0.0000000e+00 
0.0000000e+00 0.0000000e+00 0.0000000e+00 
0.0000000e+00 0.0000000e+00 0.0000000e+00 
0.0000000e+00 0.0000000e+00 0.0000000e+00 
0.0000000e+00 0.0000000e+00 0.0000000e+00 
0.0000000e+00 0.0000000e+00 0.0000000e+00 
0.0000000e+00 0.0000000e+00 0.0000000e+00 
0.0000000e+00 0.0000000e+00 0.0000000e+00 
0.0000000e+00 0.0000000e+00 0.0000000e+00 
0.0000000e+00 0.0000000e+00 0.0000000e+00 
0.0000000e+00 0.0000000e+00 0.0000000e+00 
0.0000000e+00 0.0000000e+00 0.0000000e+00 
0.0000000e+00 0.0000000e+00 0.0000000e+00 
0.0000000e+00 0.0000000e+00 0.0000000e+00 
0.0000000e+00 0.0000000e+00 0.0000000e+00 
0.0000000e+00 0.0000000e+00 0.0000000e+00 
0.0000000e+00 0.0000000e+00 0.0000000e+00 
0.0000000e+00 0.0000000e+00 0.0000000e+00 
0.0000000e+00 0.0000000e+00 0.0000000e+00 
0.0000000e+00 0.0000000e+00 0.0000000e+00 
0.0000000e+00 0.0000000e+00 0.0000000e+00 
0.0000000e+00 0.0000000e+00 0.0000000e+00 
0.0000000e+00 0.0000000e+00 0.0000000e+00 
0.0000000e+00 0.0000000e+00 0.0000000e+00 
0.0000000e+00 0.0000000e+00 0.0000000e+00 
0.0000000e+00 0.0000000e+00 0.0000000e+00 
0.0000000e+00 0.0000000e+00 0.0000000e+00 
0.0000000e+00 0.0000000e+00 0.0000000e+00 
0.0000000e+00 0.0000000e+00 0.0000000e+00 
0.0000000e+00 0.0000000e+00 0.0000000e+00 
0.0000000e+00 0.0000000e+00 0.0000000e+00 
0.0000000e+00 0.0000000e+00 0.0000000e+00 
0.0000000e+00 0.0000000e+00 0.0000000e+00 
0.0000000e+00 0.0000000e+00 0.0000000e+00 
0.0000000e+00 0.0000000e+00 0.0000000e+00 
0.0000000e+00 0.0000000e+00 0.0000000e+00 
0.0000000e+00 0.0000000e+00 0.0000000e+00 
0.0000000e+00 0.0000000e+00 0.0000000e+00 
0.0000000e+00 0.0000000e+00 0.0000000e+00 
0.0000000e+00 0.0000000e+00 0.0000000e+00 
0.0000000e+00 0.0000000e+00 0.0000000e+00 
0.0000000e+00 0.0000000e+00 0.0000000e+00 
0.0000000e+00 0.0000000e+00 0.0000000e+00 
0.0000000e+00 0.0000000e+00 0.0000000e+00 
0.0000000e+00 0.0000000e+00 0.0000000e+00 
0.0000000e+00 0.0000000e+00 0.0000000e+00 
0.0000000e+00 0.0000000e+00 0.0000000e+00 
0.0000000e+00 0.0000000e+00 0.0000000e+00 
0.0000000e+00 0.0000000e+00 0.0000000e+00 
0.0000000e+00 0.0000000e+00 0.0000000e+00 
0.0000000e+00 0.0000000e+00 0.0000000e+00 
0.0000000e+00 0.0000000e+00 0.0000000e+00 
0.0000000e+00 0.0000000e+00 0.0000000e+00 
0.0000000e+00 0.0000000e+00 0.0000000e+00 
0.0000000e+00 0.0000000e+00 0.0000000e+00 
0.0000000e+00 0.0000000e+00 0.0000000e+00 
0.0000000e+00 0.0000000e+00 0.0000000e+00 
0.0000000e+00 0.0000000e+00 0.0000000e+00 
0.0000000e+00 0.0000000e+00 0.0000000e+00 
0.0000000e+00 0.0000000e+00 0.0000000e+00 
0.0000000e+00 0.0000000e+00 0.0000000e+00 
0.0000000e+00 0.0000000e+00 0.0000000e+00 
0.0000000e+00 0.0000000e+00 0.0000000e+00 
0.0000000e+00 0.0000000e+00 0.0000000e+00 
0.0000000e+00 0.0000000e+00 0.0000000e+00 
0.0000000e+00 0.0000000e+00 0.0000000e+00 
0.0000000e+00 0.0000000e+00 0.0000000e+00 
0.0000000e+00 0.0000000e+00 0.0000000e+00 
0.0000000e+00 0.0000000e+00 0.0000000e+00 
0.0000000e+00 0.0000000e+00 0.0000000e+00 
0.0000000e+00 0.0000000e+00 0.0000000e+00 
0.0000000e+00 0.0000000e+00 0.0000000e+00 
0.0000000e+00 0.0000000e+00 0.0000000e+00 
0.0000000e+00 0.0000000e+00 0.0000000e+00 
0.0000000e+00 0.0000000e+00 0.0000000e+00 
0.0000000e+00 0.0000000e+00 0.0000000e+00 
0.0000000e+00 0.0000000e+00 0.0000000e+00 
0.0000000e+00 0.0000000e+00 0.0000000e+00 
0.0000000e+00 0.0000000e+00 0.0000000e+00 
0.0000000e+00 0.0000000e+00 0.0000000e+00 
0.0000000e+00 0.0000000e+00 0.0000000e+00 
0.0000000e+00 0.0000000e+00 0.0000000e+00 
0.0000000e+00 0.0000000e+00 0.0000000e+00 
0.0000000e+00 0.0000000e+00 0.0000000e+00 
0.0000000e+00 0.0000000e+00 0.0000000e+00 
0.0000000e+00 0.0000000e+00 0.0000000e+00 
0.0000000e+00 0.0000000e+00 0.0000000e+00 
0.0000000e+00 0.0000000e+00 0.0000000e+00 
0.0000000e+00 0.0000000e+00 0.0000000e+00 
0.0000000e+00 0.0000000e+00 0.0000000e+00 
0.0000000e+00 0.0000000e+00 0.0000000e+00 
0.0000000e+00 0.0000000e+00 0.0000000e+00 
0.0000000e+00 0.0000000e+00 0.0000000e+00 
0.0000000e+00 0.0000000e+00 0.0000000e+00 
0.0000000e+00 0.0000000e+00 0.0000000e+00 
0.0000000e+00 0.0000000e+00 0.0000000e+00 
0.0000000e+00 0.0000000e+00 0.0000000e+00 
0.0000000e+00 0.0000000e+00 0.0000000e+00 
0.0000000e+00 0.0000000e+00 0.0000000e+00 
0.0000000e+00 0.0000000e+00 0.0000000e+00 
0.0000000e+00 0.0000000e+00 0.0000000e+00 
0.0000000e+00 0.0000000e+00 0.0000000e+00 
0.0000000e+00 0.0000000e+00 0.0000000e+00 
0.0000000e+00 0.0000000e+00 0.0000000e+00 
0.0000000e+00 0.0000000e+00 0.0000000e+00 
0.0000000e+00 0.0000000e+00 0.0000000e+00 
0.0000000e+00 0.0000000e+00 0.0000000e+00 
0.0000000e+00 0.0000000e+00 0.0000000e+00 
0.0000000e+00 0.0000000e+00 0.0000000e+00 
0.0000000e+00 0.0000000e+00 0.0000000e+00 
0.0000000e+00 0.0000000e+00 0.0000000e+00 
0.0000000e+00 0.0000000e+00 0.0000000e+00 
0.0000000e+00 0.0000000e+00 0.0000000e+00 
0.0000000e+00 0.0000000e+00 0.0000000e+00 
0.0000000e+00 0.0000000e+00 0.0000000e+00 
0.0000000e+00 0.0000000e+00 0.0000000e+00 
0.0000000e+00 0.0000000e+00 0.0000000e+00 
0.0000000e+00 0.0000000e+00 0.0000000e+00 
0.0000000e+00 0.0000000e+00 0.0000000e+00 
0.0000000e+00 0.0000000e+00 0.0000000e+00 
0.0000000e+00 0.0000000e+00 0.0000000e+00 
0.0000000e+00 0.0000000e+00 0.0000000e+00 
0.0000000e+00 0.0000000e+00 0.0000000e+00 
0.0000000e+00 0.0000000e+00 0.0000000e+00 
0.0000000e+00 0.0000000e+00 0.0000000e+00 
0.0000000e+00 0.0000000e+00 0.0000000e+00 
0.0000000e+00 0.0000000e+00 0.0000000e+00 
0.0000000e+00 0.0000000e+00 0.0000000e+00 
0.0000000e+00 0.0000000e+00 0.0000000e+00 
0.0000000e+00 0.0000000e+00 0.0000000e+00 
0.0000000e+00 0.0000000e+00 0.0000000e+00 
0.0000000e+00 0.0000000e+00 0.0000000e+00 
0.0000000e+00 0.0000000e+00 0.0000000e+00 
0.0000000e+00 0.0000000e+00 0.0000000e+00 
0.0000000e+00 0.0000000e+00 0.0000000e+00 
0.0000000e+00 0.0000000e+00 0.0000000e+00 
0.0000000e+00 0.0000000e+00 0.0000000e+00 
0.0000000e+00 0.0000000e+00 0.0000000e+00 
0.0000000e+00 0.0000000e+00 0.0000000e+00 
0.0000000e+00 0.0000000e+00 0.0000000e+00 
0.0000000e+00 0.0000000e+00 0.0000000e+00 
0.0000000e+00 0.0000000e+00 0.0000000e+00 
0.0000000e+00 0.0000000e+00 0.0000000e+00 
0.0000000e+00 0.0000000e+00 0.0000000e+00 
0.0000000e+00 0.0000000e+00 0.0000000e+00 
0.0000000e+00 0.0000000e+00 0.0000000e+00 
0.0000000e+00 0.0000000e+00 0.0000000e+00 
0.0000000e+00 0.0000000e+00 0.0000000e+00 
0.0000000e+00 0.0000000e+00 0.0000000e+00 
0.0000000e+00 0.0000000e+00 0.0000000e+00 
0.0000000e+00 0.0000000e+00 0.0000000e+00 
0.0000000e+00 0.0000000e+00 0.0000000e+00 
0.0000000e+00 0.0000000e+00 0.0000000e+00 
0.0000000e+00 0.0000000e+00 0.0000000e+00 
0.0000000e+00 0.0000000e+00 0.0000000e+00 
0.0000000e+00 0.0000000e+00 0.0000000e+00 
0.0000000e+00 0.0000000e+00 0.0000000e+00 
0.0000000e+00 0.0000000e+00 0.0000000e+00 
0.0000000e+00 0.0000000e+00 0.0000000e+00 
0.0000000e+00 0.0000000e+00 0.0000000e+00 
0.0000000e+00 0.0000000e+00 0.0000000e+00 
0.0000000e+00 0.0000000e+00 0.0000000e+00 
0.0000000e+00 0.0000000e+00 0.0000000e+00 
0.0000000e+00 0.0000000e+00 0.0000000e+00 
0.0000000e+00 0.0000000e+00 0.0000000e+00 
0.0000000e+00 0.0000000e+00 0.0000000e+00 
0.0000000e+00 0.0000000e+00 0.0000000e+00 
0.0000000e+00 0.0000000e+00 0.0000000e+00 
0.0000000e+00 0.0000000e+00 0.0000000e+00 
0.0000000e+00 0.0000000e+00 0.0000000e+00 
0.0000000e+00 0.0000000e+00 0.0000000e+00 
0.0000000e+00 0.0000000e+00 0.0000000e+00 
0.0000000e+00 0.0000000e+00 0.0000000e+00 
0.0000000e+00 0.0000000e+00 0.0000000e+00 
0.0000000e+00 0.0000000e+00 0.0000000e+00 
0.0000000e+00 0.0000000e+00 0.0000000e+00 
0.0000000e+00 0.0000000e+00 0.0000000e+00 
0.0000000e+00 0.0000000e+00 0.0000000e+00 
0.0000000e+00 0.0000000e+00 0.0000000e+00 
0.0000000e+00 0.0000000e+00 0.0000000e+00 
0.0000000e+00 0.0000000e+00 0.0000000e+00 
0.0000000e+00 0.0000000e+00 0.0000000e+00 
0.0000000e+00 0.0000000e+00 0.0000000e+00 
0.0000000e+00 0.0000000e+00 0.0000000e+00 
0.0000000e+00 0.0000000e+00 0.0000000e+00 
0.0000000e+00 0.0000000e+00 0.0000000e+00 
0.0000000e+00 0.0000000e+00 0.0000000e+00 
0.0000000e+00 0.0000000e+00 0.0000000e+00 
0.0000000e+00 0.0000000e+00 0.0000000e+00 
0.0000000e+00 0.0000000e+00 0.0000000e+00 
0.0000000e+00 0.0000000e+00 0.0000000e+00 
0.0000000e+00 0.0000000e+00 0.0000000e+00 
0.0000000e+00 0.0000000e+00 0.0000000e+00 
0.0000000e+00 0.0000000e+00 0.0000000e+00 
0.0000000e+00 0.0000000e+00 0.0000000e+00 
0.0000000e+00 0.0000000e+00 0.0000000e+00 
0.0000000e+00 0.0000000e+00 0.0000000e+00 
0.0000000e+00 0.0000000e+00 0.0000000e+00 
0.0000000e+00 0.0000000e+00 0.0000000e+00 
0.0000000e+00 0.0000000e+00 0.0000000e+00 
0.0000000e+00 0.0000000e+00 0.0000000e+00 
0.0000000e+00 0.0000000e+00 0.0000000e+00 
0.0000000e+00 0.0000000e+00 0.0000000e+00 
0.0000000e+00 0.0000000e+00 0.0000000e+00 
0.0000000e+00 0.0000000e+00 0.0000000e+00 
0.0000000e+00 0.0000000e+00 0.0000000e+00 
0.0000000e+00 0.0000000e+00 0.0000000e+00 
0.0000000e+00 0.0000000e+00 0.0000000e+00 
0.0000000e+00 0.0000000e+00 0.0000000e+00 
0.0000000e+00 0.0000000e+00 0.0000000e+00 
0.0000000e+00 0.0000000e+00 0.0000000e+00 
0.0000000e+00 0.0000000e+00 0.0000000e+00 
0.0000000e+00 0.0000000e+00 0.0000000e+00 
0.0000000e+00 0.0000000e+00 0.0000000e+00 
0.0000000e+00 0.0000000e+00 0.0000000e+00 
0.0000000e+00 0.0000000e+00 0.0000000e+00 
0.0000000e+00 0.0000000e+00 0.0000000e+00 
0.0000000e+00 0.0000000e+00 0.0000000e+00 
0.0000000e+00 0.0000000e+00 0.0000000e+00 
0.0000000e+00 0.0000000e+00 0.0000000e+00 
0.0000000e+00 0.0000000e+00 0.0000000e+00 
0.0000000e+00 0.0000000e+00 0.0000000e+00 
0.0000000e+00 0.0000000e+00 0.0000000e+00 
0.0000000e+00 0.0000000e+00 0.0000000e+00 
0.0000000e+00 0.0000000e+00 0.0000000e+00 
0.0000000e+00 0.0000000e+00 0.0000000e+00 
0.0000000e+00 0.0000000e+00 0.0000000e+00 
0.0000000e+00 0.0000000e+00 0.0000000e+00 
0.0000000e+00 0.0000000e+00 0.0000000e+00 
0.0000000e+00 0.0000000e+00 0.0000000e+00 
0.0000000e+00 0.0000000e+00 0.0000000e+00 
0.0000000e+00 0.0000000e+00 0.0000000e+00 
0.0000000e+00 0.0000000e+00 0.0000000e+00 
0.0000000e+00 0.0000000e+00 0.0000000e+00 
0.0000000e+00 0.0000000e+00 0.0000000e+00 
0.0000000e+00 0.0000000e+00 0.0000000e+00 
0.0000000e+00 0.0000000e+00 0.0000000e+00 
0.0000000e+00 0.0000000e+00 0.0000000e+00 
0.0000000e+00 0.0000000e+00 0.0000000e+00 
0.0000000e+00 0.0000000e+00 0.0000000e+00 
0.0000000e+00 0.0000000e+00 0.0000000e+00 
0.0000000e+00 0.0000000e+00 0.0000000e+00 
0.0000000e+00 0.0000000e+00 0.0000000e+00 
0.0000000e+00 0.0000000e+00 0.0000000e+00 
0.0000000e+00 0.0000000e+00 0.0000000e+00 
0.0000000e+00 0.0000000e+00 0.0000000e+00 
0.0000000e+00 0.0000000e+00 0.0000000e+00 
0.0000000e+00 0.0000000e+00 0.0000000e+00 
0.0000000e+00 0.0000000e+00 0.0000000e+00 
0.0000000e+00 0.0000000e+00 0.0000000e+00 
0.0000000e+00 0.0000000e+00 0.0000000e+00 
0.0000000e+00 0.0000000e+00 0.0000000e+00 
0.0000000e+00 0.0000000e+00 0.0000000e+00 
0.0000000e+00 0.0000000e+00 0.0000000e+00 
0.0000000e+00 0.0000000e+00 0.0000000e+00 
0.0000000e+00 0.0000000e+00 0.0000000e+00 
0.0000000e+00 0.0000000e+00 0.0000000e+00 
0.0000000e+00 0.0000000e+00 0.0000000e+00 
0.0000000e+00 0.0000000e+00 0.0000000e+00 
0.0000000e+00 0.0000000e+00 0.0000000e+00 
0.0000000e+00 0.0000000e+00 0.0000000e+00 
0.0000000e+00 0.0000000e+00 0.0000000e+00 
0.0000000e+00 0.0000000e+00 0.0000000e+00 
0.0000000e+00 0.0000000e+00 0.0000000e+00 
0.0000000e+00 0.0000000e+00 0.0000000e+00 
0.0000000e+00 0.0000000e+00 0.0000000e+00 
0.0000000e+00 0.0000000e+00 0.0000000e+00 
0.0000000e+00 0.0000000e+00 0.0000000e+00 
0.0000000e+00 0.0000000e+00 0.0000000e+00 
0.0000000e+00 0.0000000e+00 0.0000000e+00 
0.0000000e+00 0.0000000e+00 0.0000000e+00 
0.0000000e+00 0.0000000e+00 0.0000000e+00 
0.0000000e+00 0.0000000e+00 0.0000000e+00 
0.0000000e+00 0.0000000e+00 0.0000000e+00 
0.0000000e+00 0.0000000e+00 0.0000000e+00 
0.0000000e+00 0.0000000e+00 0.0000000e+00 
0.0000000e+00 0.0000000e+00 0.0000000e+00 
0.0000000e+00 0.0000000e+00 0.0000000e+00 
0.0000000e+00 0.0000000e+00 0.0000000e+00 
0.0000000e+00 0.0000000e+00 0.0000000e+00 
0.0000000e+00 0.0000000e+00 0.0000000e+00 
0.0000000e+00 0.0000000e+00 0.0000000e+00 
0.0000000e+00 0.0000000e+00 0.0000000e+00 
0.0000000e+00 0.0000000e+00 0.0000000e+00 
0.0000000e+00 0.0000000e+00 0.0000000e+00 
0.0000000e+00 0.0000000e+00 0.0000000e+00 
0.0000000e+00 0.0000000e+00 0.0000000e+00 
0.0000000e+00 0.0000000e+00 0.0000000e+00 
0.0000000e+00 0.0000000e+00 0.0000000e+00 
0.0000000e+00 0.0000000e+00 0.0000000e+00 
0.0000000e+00 0.0000000e+00 0.0000000e+00 
0.0000000e+00 0.0000000e+00 0.0000000e+00 
0.0000000e+00 0.0000000e+00 0.0000000e+00 
0.0000000e+00 0.0000000e+00 0.0000000e+00 
0.0000000e+00 0.0000000e+00 0.0000000e+00 
0.0000000e+00 0.0000000e+00 0.0000000e+00 
0.0000000e+00 0.0000000e+00 0.0000000e+00 
0.0000000e+00 0.0000000e+00 0.0000000e+00 
0.0000000e+00 0.0000000e+00 0.0000000e+00 
0.0000000e+00 0.0000000e+00 0.0000000e+00 
0.0000000e+00 0.0000000e+00 0.0000000e+00 
0.0000000e+00 0.0000000e+00 0.0000000e+00 
0.0000000e+00 0.0000000e+00 0.0000000e+00 
0.0000000e+00 0.0000000e+00 0.0000000e+00 
0.0000000e+00 0.0000000e+00 0.0000000e+00 
0.0000000e+00 0.0000000e+00 0.0000000e+00 
0.0000000e+00 0.0000000e+00 0.0000000e+00 
0.0000000e+00 0.0000000e+00 0.0000000e+00 
0.0000000e+00 0.0000000e+00 0.0000000e+00 
0.0000000e+00 0.0000000e+00 0.0000000e+00 
0.0000000e+00 0.0000000e+00 0.0000000e+00 
0.0000000e+00 0.0000000e+00 0.0000000e+00 
0.0000000e+00 0.0000000e+00 0.0000000e+00 
0.0000000e+00 0.0000000e+00 0.0000000e+00 
0.0000000e+00 0.0000000e+00 0.0000000e+00 
0.0000000e+00 0.0000000e+00 0.0000000e+00 
0.0000000e+00 0.0000000e+00 0.0000000e+00 
0.0000000e+00 0.0000000e+00 0.0000000e+00 
0.0000000e+00 0.0000000e+00 0.0000000e+00 
0.0000000e+00 0.0000000e+00 0.0000000e+00 
0.0000000e+00 0.0000000e+00 0.0000000e+00 
0.0000000e+00 0.0000000e+00 0.0000000e+00 
0.0000000e+00 0.0000000e+00 0.0000000e+00 
0.0000000e+00 0.0000000e+00 0.0000000e+00 
0.0000000e+00 0.0000000e+00 0.0000000e+00 
0.0000000e+00 0.0000000e+00 0.0000000e+00 
0.0000000e+00 0.0000000e+00 0.0000000e+00 
0.0000000e+00 0.0000000e+00 0.0000000e+00 
0.0000000e+00 0.0000000e+00 0.0000000e+00 
0.0000000e+00 0.0000000e+00 0.0000000e+00 
0.0000000e+00 0.0000000e+00 0.0000000e+00 
0.0000000e+00 0.0000000e+00 0.0000000e+00 
0.0000000e+00 0.0000000e+00 0.0000000e+00 
0.0000000e+00 0.0000000e+00 0.0000000e+00 
0.0000000e+00 0.0000000e+00 0.0000000e+00 
0.0000000e+00 0.0000000e+00 0.0000000e+00 
0.0000000e+00 0.0000000e+00 0.0000000e+00 
0.0000000e+00 0.0000000e+00 0.0000000e+00 
0.0000000e+00 0.0000000e+00 0.0000000e+00 
0.0000000e+00 0.0000000e+00 0.0000000e+00 
0.0000000e+00 0.0000000e+00 0.0000000e+00 
0.0000000e+00 0.0000000e+00 0.0000000e+00 
0.0000000e+00 0.0000000e+00 0.0000000e+00 
0.0000000e+00 0.0000000e+00 0.0000000e+00 
0.0000000e+00 0.0000000e+00 0.0000000e+00 
0.0000000e+00 0.0000000e+00 0.0000000e+00 
0.0000000e+00 0.0000000e+00 0.0000000e+00 
0.0000000e+00 0.0000000e+00 0.0000000e+00 
0.0000000e+00 0.0000000e+00 0.0000000e+00 
0.0000000e+00 0.0000000e+00 0.0000000e+00 
0.0000000e+00 0.0000000e+00 0.0000000e+00 
0.0000000e+00 0.0000000e+00 0.0000000e+00 
0.0000000e+00 0.0000000e+00 0.0000000e+00 
0.0000000e+00 0.0000000e+00 0.0000000e+00 
0.0000000e+00 0.0000000e+00 0.0000000e+00 
0.0000000e+00 0.0000000e+00 0.0000000e+00 
0.0000000e+00 0.0000000e+00 0.0000000e+00 
0.0000000e+00 0.0000000e+00 0.0000000e+00 
0.0000000e+00 0.0000000e+00 0.0000000e+00 
0.0000000e+00 0.0000000e+00 0.0000000e+00 
0.0000000e+00 0.0000000e+00 0.0000000e+00 
0.0000000e+00 0.0000000e+00 0.0000000e+00 
0.0000000e+00 0.0000000e+00 0.0000000e+00 
0.0000000e+00 0.0000000e+00 0.0000000e+00 
0.0000000e+00 0.0000000e+00 0.0000000e+00 
0.0000000e+00 0.0000000e+00 0.0000000e+00 
0.0000000e+00 0.0000000e+00 0.0000000e+00 
0.0000000e+00 0.0000000e+00 0.0000000e+00 
0.0000000e+00 0.0000000e+00 0.0000000e+00 
0.0000000e+00 0.0000000e+00 0.0000000e+00 
0.0000000e+00 0.0000000e+00 0.0000000e+00 
0.0000000e+00 0.0000000e+00 0.0000000e+00 
0.0000000e+00 0.0000000e+00 0.0000000e+00 
0.0000000e+00 0.0000000e+00 0.0000000e+00 
0.0000000e+00 0.0000000e+00 0.0000000e+00 
0.0000000e+00 0.0000000e+00 0.0000000e+00 
0.0000000e+00 0.0000000e+00 0.0000000e+00 
0.0000000e+00 0.0000000e+00 0.0000000e+00 
0.0000000e+00 0.0000000e+00 0.0000000e+00 
0.0000000e+00 0.0000000e+00 0.0000000e+00 
0.0000000e+00 0.0000000e+00 0.0000000e+00 
0.0000000e+00 0.0000000e+00 0.0000000e+00 
0.0000000e+00 0.0000000e+00 0.0000000e+00 
0.0000000e+00 0.0000000e+00 0.0000000e+00 
0.0000000e+00 0.0000000e+00 0.0000000e+00 
0.0000000e+00 0.0000000e+00 0.0000000e+00 
0.0000000e+00 0.0000000e+00 0.0000000e+00 
0.0000000e+00 0.0000000e+00 0.0000000e+00 
0.0000000e+00 0.0000000e+00 0.0000000e+00 
0.0000000e+00 0.0000000e+00 0.0000000e+00 
0.0000000e+00 0.0000000e+00 0.0000000e+00 
0.0000000e+00 0.0000000e+00 0.0000000e+00 
0.0000000e+00 0.0000000e+00 0.0000000e+00 
0.0000000e+00 0.0000000e+00 0.0000000e+00 
0.0000000e+00 0.0000000e+00 0.0000000e+00 
0.0000000e+00 0.0000000e+00 0.0000000e+00 
0.0000000e+00 0.0000000e+00 0.0000000e+00 
0.0000000e+00 0.0000000e+00 0.0000000e+00 
0.0000000e+00 0.0000000e+00 0.0000000e+00 
0.0000000e+00 0.0000000e+00 0.0000000e+00 
0.0000000e+00 0.0000000e+00 0.0000000e+00 
0.0000000e+00 0.0000000e+00 0.0000000e+00 
0.0000000e+00 0.0000000e+00 0.0000000e+00 
0.0000000e+00 0.0000000e+00 0.0000000e+00 
0.0000000e+00 0.0000000e+00 0.0000000e+00 
0.0000000e+00 0.0000000e+00 0.0000000e+00 
0.0000000e+00 0.0000000e+00 0.0000000e+00 
0.0000000e+00 0.0000000e+00 0.0000000e+00 
0.0000000e+00 0.0000000e+00 0.0000000e+00 
0.0000000e+00 0.0000000e+00 0.0000000e+00 
0.0000000e+00 0.0000000e+00 0.0000000e+00 
0.0000000e+00 0.0000000e+00 0.0000000e+00 
0.0000000e+00 0.0000000e+00 0.0000000e+00 
0.0000000e+00 0.0000000e+00 0.0000000e+00 
0.0000000e+00 0.0000000e+00 0.0000000e+00 
0.0000000e+00 0.0000000e+00 0.0000000e+00 
0.0000000e+00 0.0000000e+00 0.0000000e+00 
0.0000000e+00 0.0000000e+00 0.0000000e+00 
0.0000000e+00 0.0000000e+00 0.0000000e+00 
0.0000000e+00 0.0000000e+00 0.0000000e+00 
0.0000000e+00 0.0000000e+00 0.0000000e+00 
0.0000000e+00 0.0000000e+00 0.0000000e+00 
0.0000000e+00 0.0000000e+00 0.0000000e+00 
0.0000000e+00 0.0000000e+00 0.0000000e+00 
0.0000000e+00 0.0000000e+00 0.0000000e+00 
0.0000000e+00 0.0000000e+00 0.0000000e+00 
0.0000000e+00 0.0000000e+00 0.0000000e+00 
0.0000000e+00 0.0000000e+00 0.0000000e+00 
0.0000000e+00 0.0000000e+00 0.0000000e+00 
0.0000000e+00 0.0000000e+00 0.0000000e+00 
0.0000000e+00 0.0000000e+00 0.0000000e+00 
0.0000000e+00 0.0000000e+00 0.0000000e+00 
0.0000000e+00 0.0000000e+00 0.0000000e+00 
0.0000000e+00 0.0000000e+00 0.0000000e+00 
0.0000000e+00 0.0000000e+00 0.0000000e+00 
0.0000000e+00 0.0000000e+00 0.0000000e+00 
0.0000000e+00 0.0000000e+00 0.0000000e+00 
0.0000000e+00 0.0000000e+00 0.0000000e+00 
0.0000000e+00 0.0000000e+00 0.0000000e+00 
0.0000000e+00 0.0000000e+00 0.0000000e+00 
0.0000000e+00 0.0000000e+00 0.0000000e+00 
0.0000000e+00 0.0000000e+00 0.0000000e+00 
0.0000000e+00 0.0000000e+00 0.0000000e+00 
0.0000000e+00 0.0000000e+00 0.0000000e+00 
0.0000000e+00 0.0000000e+00 0.0000000e+00 
0.0000000e+00 0.0000000e+00 0.0000000e+00 
0.0000000e+00 0.0000000e+00 0.0000000e+00 
0.0000000e+00 0.0000000e+00 0.0000000e+00 
0.0000000e+00 0.0000000e+00 0.0000000e+00 
0.0000000e+00 0.0000000e+00 0.0000000e+00 
0.0000000e+00 0.0000000e+00 0.0000000e+00 
0.0000000e+00 0.0000000e+00 0.0000000e+00 
0.0000000e+00 0.0000000e+00 0.0000000e+00 
0.0000000e+00 0.0000000e+00 0.0000000e+00 
0.0000000e+00 0.0000000e+00 0.0000000e+00 
0.0000000e+00 0.0000000e+00 0.0000000e+00 
0.0000000e+00 0.0000000e+00 0.0000000e+00 
0.0000000e+00 0.0000000e+00 0.0000000e+00 
0.0000000e+00 0.0000000e+00 0.0000000e+00 
0.0000000e+00 0.0000000e+00 0.0000000e+00 
0.0000000e+00 0.0000000e+00 0.0000000e+00 
0.0000000e+00 0.0000000e+00 0.0000000e+00 
0.0000000e+00 0.0000000e+00 0.0000000e+00 
0.0000000e+00 0.0000000e+00 0.0000000e+00 
0.0000000e+00 0.0000000e+00 0.0000000e+00 
0.0000000e+00 0.0000000e+00 0.0000000e+00 
0.0000000e+00 0.0000000e+00 0.0000000e+00 
0.0000000e+00 0.0000000e+00 0.0000000e+00 
0.0000000e+00 0.0000000e+00 0.0000000e+00 
0.0000000e+00 0.0000000e+00 0.0000000e+00 
0.0000000e+00 0.0000000e+00 0.0000000e+00 
0.0000000e+00 0.0000000e+00 0.0000000e+00 
0.0000000e+00 0.0000000e+00 0.0000000e+00 
0.0000000e+00 0.0000000e+00 0.0000000e+00 
0.0000000e+00 0.0000000e+00 0.0000000e+00 
0.0000000e+00 0.0000000e+00 0.0000000e+00 
0.0000000e+00 0.0000000e+00 0.0000000e+00 
0.0000000e+00 0.0000000e+00 0.0000000e+00 
0.0000000e+00 0.0000000e+00 0.0000000e+00 
0.0000000e+00 0.0000000e+00 0.0000000e+00 
0.0000000e+00 0.0000000e+00 0.0000000e+00 
0.0000000e+00 0.0000000e+00 0.0000000e+00 
0.0000000e+00 0.0000000e+00 0.0000000e+00 
0.0000000e+00 0.0000000e+00 0.0000000e+00 
0.0000000e+00 0.0000000e+00 0.0000000e+00 
0.0000000e+00 0.0000000e+00 0.0000000e+00 
0.0000000e+00 0.0000000e+00 0.0000000e+00 
0.0000000e+00 0.0000000e+00 0.0000000e+00 
0.0000000e+00 0.0000000e+00 0.0000000e+00 
0.0000000e+00 0.0000000e+00 0.0000000e+00 
0.0000000e+00 0.0000000e+00 0.0000000e+00 
0.0000000e+00 0.0000000e+00 0.0000000e+00 
0.0000000e+00 0.0000000e+00 0.0000000e+00 
0.0000000e+00 0.0000000e+00 0.0000000e+00 
0.0000000e+00 0.0000000e+00 0.0000000e+00 
0.0000000e+00 0.0000000e+00 0.0000000e+00 
0.0000000e+00 0.0000000e+00 0.0000000e+00 
0.0000000e+00 0.0000000e+00 0.0000000e+00 
0.0000000e+00 0.0000000e+00 0.0000000e+00 
0.0000000e+00 0.0000000e+00 0.0000000e+00 
0.0000000e+00 0.0000000e+00 0.0000000e+00 
0.0000000e+00 0.0000000e+00 0.0000000e+00 
0.0000000e+00 0.0000000e+00 0.0000000e+00 
0.0000000e+00 0.0000000e+00 0.0000000e+00 
0.0000000e+00 0.0000000e+00 0.0000000e+00 
0.0000000e+00 0.0000000e+00 0.0000000e+00 
0.0000000e+00 0.0000000e+00 0.0000000e+00 
0.0000000e+00 0.0000000e+00 0.0000000e+00 
0.0000000e+00 0.0000000e+00 0.0000000e+00 
0.0000000e+00 0.0000000e+00 0.0000000e+00 
0.0000000e+00 0.0000000e+00 0.0000000e+00 
0.0000000e+00 0.0000000e+00 0.0000000e+00 
0.0000000e+00 0.0000000e+00 0.0000000e+00 
0.0000000e+00 0.0000000e+00 0.0000000e+00 
0.0000000e+00 0.0000000e+00 0.0000000e+00 
0.0000000e+00 0.0000000e+00 0.0000000e+00 
0.0000000e+00 0.0000000e+00 0.0000000e+00 
0.0000000e+00 0.0000000e+00 0.0000000e+00 
0.0000000e+00 0.0000000e+00 0.0000000e+00 
0.0000000e+00 0.0000000e+00 0.0000000e+00 
0.0000000e+00 0.0000000e+00 0.0000000e+00 
0.0000000e+00 0.0000000e+00 0.0000000e+00 
0.0000000e+00 0.0000000e+00 0.0000000e+00 
0.0000000e+00 0.0000000e+00 0.0000000e+00 
0.0000000e+00 0.0000000e+00 0.0000000e+00 
0.0000000e+00 0.0000000e+00 0.0000000e+00 
0.0000000e+00 0.0000000e+00 0.0000000e+00 
0.0000000e+00 0.0000000e+00 0.0000000e+00 
0.0000000e+00 0.0000000e+00 0.0000000e+00 
0.0000000e+00 0.0000000e+00 0.0000000e+00 
0.0000000e+00 0.0000000e+00 0.0000000e+00 
0.0000000e+00 0.0000000e+00 0.0000000e+00 
0.0000000e+00 0.0000000e+00 0.0000000e+00 
0.0000000e+00 0.0000000e+00 0.0000000e+00 
0.0000000e+00 0.0000000e+00 0.0000000e+00 
0.0000000e+00 0.0000000e+00 0.0000000e+00 
0.0000000e+00 0.0000000e+00 0.0000000e+00 
0.0000000e+00 0.0000000e+00 0.0000000e+00 
0.0000000e+00 0.0000000e+00 0.0000000e+00 
0.0000000e+00 0.0000000e+00 0.0000000e+00 
0.0000000e+00 0.0000000e+00 0.0000000e+00 
0.0000000e+00 0.0000000e+00 0.0000000e+00 
0.0000000e+00 0.0000000e+00 0.0000000e+00 
0.0000000e+00 0.0000000e+00 0.0000000e+00 
0.0000000e+00 0.0000000e+00 0.0000000e+00 
0.0000000e+00 0.0000000e+00 0.0000000e+00 
0.0000000e+00 0.0000000e+00 0.0000000e+00 
0.0000000e+00 0.0000000e+00 0.0000000e+00 
0.0000000e+00 0.0000000e+00 0.0000000e+00 
0.0000000e+00 0.0000000e+00 0.0000000e+00 
0.0000000e+00 0.0000000e+00 0.0000000e+00 
0.0000000e+00 0.0000000e+00 0.0000000e+00 
0.0000000e+00 0.0000000e+00 0.0000000e+00 
0.0000000e+00 0.0000000e+00 0.0000000e+00 
0.0000000e+00 0.0000000e+00 0.0000000e+00 
0.0000000e+00 0.0000000e+00 0.0000000e+00 
0.0000000e+00 0.0000000e+00 0.0000000e+00 
0.0000000e+00 0.0000000e+00 0.0000000e+00 
0.0000000e+00 0.0000000e+00 0.0000000e+00 
0.0000000e+00 0.0000000e+00 0.0000000e+00 
0.0000000e+00 0.0000000e+00 0.0000000e+00 
0.0000000e+00 0.0000000e+00 0.0000000e+00 
0.0000000e+00 0.0000000e+00 0.0000000e+00 
0.0000000e+00 0.0000000e+00 0.0000000e+00 
0.0000000e+00 0.0000000e+00 0.0000000e+00 
0.0000000e+00 0.0000000e+00 0.0000000e+00 
0.0000000e+00 0.0000000e+00 0.0000000e+00 
0.0000000e+00 0.0000000e+00 0.0000000e+00 
0.0000000e+00 0.0000000e+00 0.0000000e+00 
0.0000000e+00 0.0000000e+00 0.0000000e+00 
0.0000000e+00 0.0000000e+00 0.0000000e+00 
0.0000000e+00 0.0000000e+00 0.0000000e+00 
0.0000000e+00 0.0000000e+00 0.0000000e+00 
0.0000000e+00 0.0000000e+00 0.0000000e+00 
0.0000000e+00 0.0000000e+00 0.0000000e+00 
0.0000000e+00 0.0000000e+00 0.0000000e+00 
0.0000000e+00 0.0000000e+00 0.0000000e+00 
0.0000000e+00 0.0000000e+00 0.0000000e+00 
0.0000000e+00 0.0000000e+00 0.0000000e+00 
0.0000000e+00 0.0000000e+00 0.0000000e+00 
0.0000000e+00 0.0000000e+00 0.0000000e+00 
0.0000000e+00 0.0000000e+00 0.0000000e+00 
0.0000000e+00 0.0000000e+00 0.0000000e+00 
0.0000000e+00 0.0000000e+00 0.0000000e+00 
0.0000000e+00 0.0000000e+00 0.0000000e+00 
0.0000000e+00 0.0000000e+00 0.0000000e+00 
0.0000000e+00 0.0000000e+00 0.0000000e+00 
0.0000000e+00 0.0000000e+00 0.0000000e+00 
0.0000000e+00 0.0000000e+00 0.0000000e+00 
0.0000000e+00 0.0000000e+00 0.0000000e+00 
0.0000000e+00 0.0000000e+00 0.0000000e+00 
0.0000000e+00 0.0000000e+00 0.0000000e+00 
0.0000000e+00 0.0000000e+00 0.0000000e+00 
0.0000000e+00 0.0000000e+00 0.0000000e+00 
0.0000000e+00 0.0000000e+00 0.0000000e+00 
0.0000000e+00 0.0000000e+00 0.0000000e+00 
0.0000000e+00 0.0000000e+00 0.0000000e+00 
0.0000000e+00 0.0000000e+00 0.0000000e+00 
0.0000000e+00 0.0000000e+00 0.0000000e+00 
0.0000000e+00 0.0000000e+00 0.0000000e+00 
0.0000000e+00 0.0000000e+00 0.0000000e+00 
0.0000000e+00 0.0000000e+00 0.0000000e+00 
0.0000000e+00 0.0000000e+00 0.0000000e+00 
0.0000000e+00 0.0000000e+00 0.0000000e+00 
0.0000000e+00 0.0000000e+00 0.0000000e+00 
0.0000000e+00 0.0000000e+00 0.0000000e+00 
0.0000000e+00 0.0000000e+00 0.0000000e+00 
0.0000000e+00 0.0000000e+00 0.0000000e+00 
0.0000000e+00 0.0000000e+00 0.0000000e+00 
0.0000000e+00 0.0000000e+00 0.0000000e+00 
0.0000000e+00 0.0000000e+00 0.0000000e+00 
0.0000000e+00 0.0000000e+00 0.0000000e+00 
0.0000000e+00 0.0000000e+00 0.0000000e+00 
0.0000000e+00 0.0000000e+00 0.0000000e+00 
0.0000000e+00 0.0000000e+00 0.0000000e+00 
0.0000000e+00 0.0000000e+00 0.0000000e+00 
0.0000000e+00 0.0000000e+00 0.0000000e+00 
0.0000000e+00 0.0000000e+00 0.0000000e+00 
0.0000000e+00 0.0000000e+00 0.0000000e+00 
0.0000000e+00 0.0000000e+00 0.0000000e+00 
0.0000000e+00 0.0000000e+00 0.0000000e+00 
0.0000000e+00 0.0000000e+00 0.0000000e+00 
0.0000000e+00 0.0000000e+00 0.0000000e+00 
0.0000000e+00 0.0000000e+00 0.0000000e+00 
0.0000000e+00 0.0000000e+00 0.0000000e+00 
0.0000000e+00 0.0000000e+00 0.0000000e+00 
0.0000000e+00 0.0000000e+00 0.0000000e+00 
0.0000000e+00 0.0000000e+00 0.0000000e+00 
0.0000000e+00 0.0000000e+00 0.0000000e+00 
0.0000000e+00 0.0000000e+00 0.0000000e+00 
0.0000000e+00 0.0000000e+00 0.0000000e+00 
0.0000000e+00 0.0000000e+00 0.0000000e+00 
0.0000000e+00 0.0000000e+00 0.0000000e+00 
0.0000000e+00 0.0000000e+00 0.0000000e+00 
0.0000000e+00 0.0000000e+00 0.0000000e+00 
0.0000000e+00 0.0000000e+00 0.0000000e+00 
0.0000000e+00 0.0000000e+00 0.0000000e+00 
0.0000000e+00 0.0000000e+00 0.0000000e+00 
0.0000000e+00 0.0000000e+00 0.0000000e+00 
0.0000000e+00 0.0000000e+00 0.0000000e+00 
0.0000000e+00 0.0000000e+00 0.0000000e+00 
0.0000000e+00 0.0000000e+00 0.0000000e+00 
0.0000000e+00 0.0000000e+00 0.0000000e+00 
0.0000000e+00 0.0000000e+00 0.0000000e+00 
0.0000000e+00 0.0000000e+00 0.0000000e+00 
0.0000000e+00 0.0000000e+00 0.0000000e+00 
0.0000000e+00 0.0000000e+00 0.0000000e+00 
0.0000000e+00 0.0000000e+00 0.0000000e+00 
0.0000000e+00 0.0000000e+00 0.0000000e+00 
0.0000000e+00 0.0000000e+00 0.0000000e+00 
0.0000000e+00 0.0000000e+00 0.0000000e+00 
0.0000000e+00 0.0000000e+00 0.0000000e+00 
0.0000000e+00 0.0000000e+00 0.0000000e+00 
0.0000000e+00 0.0000000e+00 0.0000000e+00 
0.0000000e+00 0.0000000e+00 0.0000000e+00 
0.0000000e+00 0.0000000e+00 0.0000000e+00 
0.0000000e+00 0.0000000e+00 0.0000000e+00 
0.0000000e+00 0.0000000e+00 0.0000000e+00 
0.0000000e+00 0.0000000e+00 0.0000000e+00 
0.0000000e+00 0.0000000e+00 0.0000000e+00 
0.0000000e+00 0.0000000e+00 0.0000000e+00 
0.0000000e+00 0.0000000e+00 0.0000000e+00 
0.0000000e+00 0.0000000e+00 0.0000000e+00 
0.0000000e+00 0.0000000e+00 0.0000000e+00 
0.0000000e+00 0.0000000e+00 0.0000000e+00 
0.0000000e+00 0.0000000e+00 0.0000000e+00 
0.0000000e+00 0.0000000e+00 0.0000000e+00 
0.0000000e+00 0.0000000e+00 0.0000000e+00 
0.0000000e+00 0.0000000e+00 0.0000000e+00 
0.0000000e+00 0.0000000e+00 0.0000000e+00 
0.0000000e+00 0.0000000e+00 0.0000000e+00 
0.0000000e+00 0.0000000e+00 0.0000000e+00 
0.0000000e+00 0.0000000e+00 0.0000000e+00 
0.0000000e+00 0.0000000e+00 0.0000000e+00 
0.0000000e+00 0.0000000e+00 0.0000000e+00 
0.0000000e+00 0.0000000e+00 0.0000000e+00 
0.0000000e+00 0.0000000e+00 0.0000000e+00 
0.0000000e+00 0.0000000e+00 0.0000000e+00 
0.0000000e+00 0.0000000e+00 0.0000000e+00 
0.0000000e+00 0.0000000e+00 0.0000000e+00 
0.0000000e+00 0.0000000e+00 0.0000000e+00 
0.0000000e+00 0.0000000e+00 0.0000000e+00 
0.0000000e+00 0.0000000e+00 0.0000000e+00 
0.0000000e+00 0.0000000e+00 0.0000000e+00 
0.0000000e+00 0.0000000e+00 0.0000000e+00 
0.0000000e+00 0.0000000e+00 0.0000000e+00 
0.0000000e+00 0.0000000e+00 0.0000000e+00 
0.0000000e+00 0.0000000e+00 0.0000000e+00 
0.0000000e+00 0.0000000e+00 0.0000000e+00 
0.0000000e+00 0.0000000e+00 0.0000000e+00 
0.0000000e+00 0.0000000e+00 0.0000000e+00 
0.0000000e+00 0.0000000e+00 0.0000000e+00 
0.0000000e+00 0.0000000e+00 0.0000000e+00 
0.0000000e+00 0.0000000e+00 0.0000000e+00 
0.0000000e+00 0.0000000e+00 0.0000000e+00 
0.0000000e+00 0.0000000e+00 0.0000000e+00 
0.0000000e+00 0.0000000e+00 0.0000000e+00 
0.0000000e+00 0.0000000e+00 0.0000000e+00 
0.0000000e+00 0.0000000e+00 0.0000000e+00 
0.0000000e+00 0.0000000e+00 0.0000000e+00 
0.0000000e+00 0.0000000e+00 0.0000000e+00 
0.0000000e+00 0.0000000e+00 0.0000000e+00 
0.0000000e+00 0.0000000e+00 0.0000000e+00 
0.0000000e+00 0.0000000e+00 0.0000000e+00 
0.0000000e+00 0.0000000e+00 0.0000000e+00 
0.0000000e+00 0.0000000e+00 0.0000000e+00 
0.0000000e+00 0.0000000e+00 0.0000000e+00 
0.0000000e+00 0.0000000e+00 0.0000000e+00 
0.0000000e+00 0.0000000e+00 0.0000000e+00 
0.0000000e+00 0.0000000e+00 0.0000000e+00 
0.0000000e+00 0.0000000e+00 0.0000000e+00 
0.0000000e+00 0.0000000e+00 0.0000000e+00 
0.0000000e+00 0.0000000e+00 0.0000000e+00 
0.0000000e+00 0.0000000e+00 0.0000000e+00 
0.0000000e+00 0.0000000e+00 0.0000000e+00 
0.0000000e+00 0.0000000e+00 0.0000000e+00 
0.0000000e+00 0.0000000e+00 0.0000000e+00 
0.0000000e+00 0.0000000e+00 0.0000000e+00 
0.0000000e+00 0.0000000e+00 0.0000000e+00 
0.0000000e+00 0.0000000e+00 0.0000000e+00 
0.0000000e+00 0.0000000e+00 0.0000000e+00 
0.0000000e+00 0.0000000e+00 0.0000000e+00 
0.0000000e+00 0.0000000e+00 0.0000000e+00 
0.0000000e+00 0.0000000e+00 0.0000000e+00 
0.0000000e+00 0.0000000e+00 0.0000000e+00 
0.0000000e+00 0.0000000e+00 0.0000000e+00 
0.0000000e+00 0.0000000e+00 0.0000000e+00 
0.0000000e+00 0.0000000e+00 0.0000000e+00 
0.0000000e+00 0.0000000e+00 0.0000000e+00 
0.0000000e+00 0.0000000e+00 0.0000000e+00 
0.0000000e+00 0.0000000e+00 0.0000000e+00 
0.0000000e+00 0.0000000e+00 0.0000000e+00 
0.0000000e+00 0.0000000e+00 0.0000000e+00 
0.0000000e+00 0.0000000e+00 0.0000000e+00 
0.0000000e+00 0.0000000e+00 0.0000000e+00 
0.0000000e+00 0.0000000e+00 0.0000000e+00 
0.0000000e+00 0.0000000e+00 0.0000000e+00 
0.0000000e+00 0.0000000e+00 0.0000000e+00 
0.0000000e+00 0.0000000e+00 0.0000000e+00 
0.0000000e+00 0.0000000e+00 0.0000000e+00 
0.0000000e+00 0.0000000e+00 0.0000000e+00 
0.0000000e+00 0.0000000e+00 0.0000000e+00 
0.0000000e+00 0.0000000e+00 0.0000000e+00 
0.0000000e+00 0.0000000e+00 0.0000000e+00 
0.0000000e+00 0.0000000e+00 0.0000000e+00 
0.0000000e+00 0.0000000e+00 0.0000000e+00 
0.0000000e+00 0.0000000e+00 0.0000000e+00 
0.0000000e+00 0.0000000e+00 0.0000000e+00 
0.0000000e+00 0.0000000e+00 0.0000000e+00 
0.0000000e+00 0.0000000e+00 0.0000000e+00 
0.0000000e+00 0.0000000e+00 0.0000000e+00 
0.0000000e+00 0.0000000e+00 0.0000000e+00 
0.0000000e+00 0.0000000e+00 0.0000000e+00 
0.0000000e+00 0.0000000e+00 0.0000000e+00 
0.0000000e+00 0.0000000e+00 0.0000000e+00 
0.0000000e+00 0.0000000e+00 0.0000000e+00 
0.0000000e+00 0.0000000e+00 0.0000000e+00 
0.0000000e+00 0.0000000e+00 0.0000000e+00 
0.0000000e+00 0.0000000e+00 0.0000000e+00 
0.0000000e+00 0.0000000e+00 0.0000000e+00 
0.0000000e+00 0.0000000e+00 0.0000000e+00 
0.0000000e+00 0.0000000e+00 0.0000000e+00 
0.0000000e+00 0.0000000e+00 0.0000000e+00 
0.0000000e+00 0.0000000e+00 0.0000000e+00 
0.0000000e+00 0.0000000e+00 0.0000000e+00 
0.0000000e+00 0.0000000e+00 0.0000000e+00 
0.0000000e+00 0.0000000e+00 0.0000000e+00 
0.0000000e+00 0.0000000e+00 0.0000000e+00 
0.0000000e+00 0.0000000e+00 0.0000000e+00 
0.0000000e+00 0.0000000e+00 0.0000000e+00 
0.0000000e+00 0.0000000e+00 0.0000000e+00 
0.0000000e+00 0.0000000e+00 0.0000000e+00 
0.0000000e+00 0.0000000e+00 0.0000000e+00 
0.0000000e+00 0.0000000e+00 0.0000000e+00 
0.0000000e+00 0.0000000e+00 0.0000000e+00 
0.0000000e+00 0.0000000e+00 0.0000000e+00 
0.0000000e+00 0.0000000e+00 0.0000000e+00 
0.0000000e+00 0.0000000e+00 0.0000000e+00 
0.0000000e+00 0.0000000e+00 0.0000000e+00 
0.0000000e+00 0.0000000e+00 0.0000000e+00 
0.0000000e+00 0.0000000e+00 0.0000000e+00 
0.0000000e+00 0.0000000e+00 0.0000000e+00 
0.0000000e+00 0.0000000e+00 0.0000000e+00 
0.0000000e+00 0.0000000e+00 0.0000000e+00 
0.0000000e+00 0.0000000e+00 0.0000000e+00 
0.0000000e+00 0.0000000e+00 0.0000000e+00 
0.0000000e+00 0.0000000e+00 0.0000000e+00 
0.0000000e+00 0.0000000e+00 0.0000000e+00 
0.0000000e+00 0.0000000e+00 0.0000000e+00 
0.0000000e+00 0.0000000e+00 0.0000000e+00 
0.0000000e+00 0.0000000e+00 0.0000000e+00 
0.0000000e+00 0.0000000e+00 0.0000000e+00 
0.0000000e+00 0.0000000e+00 0.0000000e+00 
0.0000000e+00 0.0000000e+00 0.0000000e+00 
0.0000000e+00 0.0000000e+00 0.0000000e+00 
0.0000000e+00 0.0000000e+00 0.0000000e+00 
0.0000000e+00 0.0000000e+00 0.0000000e+00 
0.0000000e+00 0.0000000e+00 0.0000000e+00 
0.0000000e+00 0.0000000e+00 0.0000000e+00 
0.0000000e+00 0.0000000e+00 0.0000000e+00 
0.0000000e+00 0.0000000e+00 0.0000000e+00 
0.0000000e+00 0.0000000e+00 0.0000000e+00 
0.0000000e+00 0.0000000e+00 0.0000000e+00 
0.0000000e+00 0.0000000e+00 0.0000000e+00 
0.0000000e+00 0.0000000e+00 0.0000000e+00 
0.0000000e+00 0.0000000e+00 0.0000000e+00 
0.0000000e+00 0.0000000e+00 0.0000000e+00 
0.0000000e+00 0.0000000e+00 0.0000000e+00 
0.0000000e+00 0.0000000e+00 0.0000000e+00 
0.0000000e+00 0.0000000e+00 0.0000000e+00 
0.0000000e+00 0.0000000e+00 0.0000000e+00 
0.0000000e+00 0.0000000e+00 0.0000000e+00 
0.0000000e+00 0.0000000e+00 0.0000000e+00 
0.0000000e+00 0.0000000e+00 0.0000000e+00 
0.0000000e+00 0.0000000e+00 0.0000000e+00 
0.0000000e+00 0.0000000e+00 0.0000000e+00 
0.0000000e+00 0.0000000e+00 0.0000000e+00 
0.0000000e+00 0.0000000e+00 0.0000000e+00 
0.0000000e+00 0.0000000e+00 0.0000000e+00 
0.0000000e+00 0.0000000e+00 0.0000000e+00 
0.0000000e+00 0.0000000e+00 0.0000000e+00 
0.0000000e+00 0.0000000e+00 0.0000000e+00 
0.0000000e+00 0.0000000e+00 0.0000000e+00 
0.0000000e+00 0.0000000e+00 0.0000000e+00 
0.0000000e+00 0.0000000e+00 0.0000000e+00 
0.0000000e+00 0.0000000e+00 0.0000000e+00 
0.0000000e+00 0.0000000e+00 0.0000000e+00 
0.0000000e+00 0.0000000e+00 0.0000000e+00 
0.0000000e+00 0.0000000e+00 0.0000000e+00 
0.0000000e+00 0.0000000e+00 0.0000000e+00 
0.0000000e+00 0.0000000e+00 0.0000000e+00 
0.0000000e+00 0.0000000e+00 0.0000000e+00 
0.0000000e+00 0.0000000e+00 0.0000000e+00 
0.0000000e+00 0.0000000e+00 0.0000000e+00 
0.0000000e+00 0.0000000e+00 0.0000000e+00 
0.0000000e+00 0.0000000e+00 0.0000000e+00 
0.0000000e+00 0.0000000e+00 0.0000000e+00 
0.0000000e+00 0.0000000e+00 0.0000000e+00 
0.0000000e+00 0.0000000e+00 0.0000000e+00 
0.0000000e+00 0.0000000e+00 0.0000000e+00 
0.0000000e+00 0.0000000e+00 0.0000000e+00 
0.0000000e+00 0.0000000e+00 0.0000000e+00 
0.0000000e+00 0.0000000e+00 0.0000000e+00 
0.0000000e+00 0.0000000e+00 0.0000000e+00 
0.0000000e+00 0.0000000e+00 0.0000000e+00 
0.0000000e+00 0.0000000e+00 0.0000000e+00 
0.0000000e+00 0.0000000e+00 0.0000000e+00 
0.0000000e+00 0.0000000e+00 0.0000000e+00 
0.0000000e+00 0.0000000e+00 0.0000000e+00 
0.0000000e+00 0.0000000e+00 0.0000000e+00 
0.0000000e+00 0.0000000e+00 0.0000000e+00 
0.0000000e+00 0.0000000e+00 0.0000000e+00 
0.0000000e+00 0.0000000e+00 0.0000000e+00 
0.0000000e+00 0.0000000e+00 0.0000000e+00 
0.0000000e+00 0.0000000e+00 0.0000000e+00 
0.0000000e+00 0.0000000e+00 0.0000000e+00 
0.0000000e+00 0.0000000e+00 0.0000000e+00 
0.0000000e+00 0.0000000e+00 0.0000000e+00 
0.0000000e+00 0.0000000e+00 0.0000000e+00 
0.0000000e+00 0.0000000e+00 0.0000000e+00 
0.0000000e+00 0.0000000e+00 0.0000000e+00 
0.0000000e+00 0.0000000e+00 0.0000000e+00 
0.0000000e+00 0.0000000e+00 0.0000000e+00 
WEIGHTED_GAP 1 2292  float
0.0000000e+00
0.0000000e+00
0.0000000e+00
0.0000000e+00
0.0000000e+00
0.0000000e+00
0.0000000e+00
0.0000000e+00
0.0000000e+00
0.0000000e+00
0.0000000e+00
0.0000000e+00
0.0000000e+00
0.0000000e+00
0.0000000e+00
0.0000000e+00
0.0000000e+00
0.0000000e+00
0.0000000e+00
0.0000000e+00
0.0000000e+00
0.0000000e+00
0.0000000e+00
0.0000000e+00
0.0000000e+00
0.0000000e+00
0.0000000e+00
0.0000000e+00
0.0000000e+00
0.0000000e+00
0.0000000e+00
0.0000000e+00
0.0000000e+00
0.0000000e+00
0.0000000e+00
0.0000000e+00
0.0000000e+00
0.0000000e+00
0.0000000e+00
0.0000000e+00
0.0000000e+00
0.0000000e+00
0.0000000e+00
0.0000000e+00
0.0000000e+00
0.0000000e+00
0.0000000e+00
0.0000000e+00
0.0000000e+00
0.0000000e+00
0.0000000e+00
0.0000000e+00
0.0000000e+00
0.0000000e+00
0.0000000e+00
0.0000000e+00
0.0000000e+00
0.0000000e+00
0.0000000e+00
0.0000000e+00
0.0000000e+00
0.0000000e+00
0.0000000e+00
0.0000000e+00
0.0000000e+00
0.0000000e+00
0.0000000e+00
0.0000000e+00
0.0000000e+00
0.0000000e+00
0.0000000e+00
0.0000000e+00
0.0000000e+00
0.0000000e+00
0.0000000e+00
0.0000000e+00
0.0000000e+00
0.0000000e+00
0.0000000e+00
0.0000000e+00
0.0000000e+00
0.0000000e+00
0.0000000e+00
0.0000000e+00
0.0000000e+00
0.0000000e+00
0.0000000e+00
0.0000000e+00
0.0000000e+00
0.0000000e+00
0.0000000e+00
0.0000000e+00
0.0000000e+00
0.0000000e+00
0.0000000e+00
0.0000000e+00
0.0000000e+00
0.0000000e+00
0.0000000e+00
0.0000000e+00
0.0000000e+00
0.0000000e+00
0.0000000e+00
0.0000000e+00
0.0000000e+00
0.0000000e+00
0.0000000e+00
0.0000000e+00
0.0000000e+00
0.0000000e+00
0.0000000e+00
0.0000000e+00
0.0000000e+00
0.0000000e+00
0.0000000e+00
0.0000000e+00
0.0000000e+00
0.0000000e+00
0.0000000e+00
0.0000000e+00
0.0000000e+00
0.0000000e+00
0.0000000e+00
0.0000000e+00
0.0000000e+00
0.0000000e+00
0.0000000e+00
0.0000000e+00
0.0000000e+00
0.0000000e+00
0.0000000e+00
0.0000000e+00
0.0000000e+00
0.0000000e+00
0.0000000e+00
0.0000000e+00
0.0000000e+00
0.0000000e+00
0.0000000e+00
0.0000000e+00
0.0000000e+00
0.0000000e+00
0.0000000e+00
0.0000000e+00
0.0000000e+00
0.0000000e+00
0.0000000e+00
0.0000000e+00
0.0000000e+00
0.0000000e+00
0.0000000e+00
0.0000000e+00
0.0000000e+00
0.0000000e+00
0.0000000e+00
0.0000000e+00
0.0000000e+00
0.0000000e+00
0.0000000e+00
0.0000000e+00
0.0000000e+00
0.0000000e+00
0.0000000e+00
0.0000000e+00
0.0000000e+00
0.0000000e+00
0.0000000e+00
0.0000000e+00
0.0000000e+00
0.0000000e+00
0.0000000e+00
0.0000000e+00
0.0000000e+00
0.0000000e+00
0.0000000e+00
0.0000000e+00
0.0000000e+00
0.0000000e+00
0.0000000e+00
0.0000000e+00
0.0000000e+00
0.0000000e+00
0.0000000e+00
0.0000000e+00
0.0000000e+00
0.0000000e+00
0.0000000e+00
0.0000000e+00
0.0000000e+00
0.0000000e+00
0.0000000e+00
0.0000000e+00
0.0000000e+00
0.0000000e+00
0.0000000e+00
0.0000000e+00
0.0000000e+00
0.0000000e+00
0.0000000e+00
0.0000000e+00
0.0000000e+00
0.0000000e+00
0.0000000e+00
0.0000000e+00
0.0000000e+00
0.0000000e+00
0.0000000e+00
0.0000000e+00
0.0000000e+00
0.0000000e+00
0.0000000e+00
0.0000000e+00
0.0000000e+00
0.0000000e+00
0.0000000e+00
0.0000000e+00
0.0000000e+00
0.0000000e+00
0.0000000e+00
0.0000000e+00
0.0000000e+00
0.0000000e+00
0.0000000e+00
0.0000000e+00
0.0000000e+00
0.0000000e+00
0.0000000e+00
0.0000000e+00
0.0000000e+00
0.0000000e+00
0.0000000e+00
0.0000000e+00
0.0000000e+00
0.0000000e+00
0.0000000e+00
0.0000000e+00
0.0000000e+00
0.0000000e+00
0.0000000e+00
0.0000000e+00
0.0000000e+00
0.0000000e+00
0.0000000e+00
0.0000000e+00
0.0000000e+00
0.0000000e+00
0.0000000e+00
0.0000000e+00
0.0000000e+00
0.0000000e+00
0.0000000e+00
0.0000000e+00
0.0000000e+00
0.0000000e+00
0.0000000e+00
0.0000000e+00
0.0000000e+00
0.0000000e+00
0.0000000e+00
0.0000000e+00
0.0000000e+00
0.0000000e+00
0.0000000e+00
0.0000000e+00
0.0000000e+00
0.0000000e+00
0.0000000e+00
0.0000000e+00
0.0000000e+00
0.0000000e+00
0.0000000e+00
0.0000000e+00
0.0000000e+00
0.0000000e+00
0.0000000e+00
0.0000000e+00
0.0000000e+00
0.0000000e+00
0.0000000e+00
0.0000000e+00
0.0000000e+00
0.0000000e+00
0.0000000e+00
0.0000000e+00
0.0000000e+00
0.0000000e+00
0.0000000e+00
0.0000000e+00
0.0000000e+00
0.0000000e+00
0.0000000e+00
0.0000000e+00
0.0000000e+00
0.0000000e+00
0.0000000e+00
0.0000000e+00
0.0000000e+00
0.0000000e+00
0.0000000e+00
0.0000000e+00
0.0000000e+00
0.0000000e+00
0.0000000e+00
0.0000000e+00
0.0000000e+00
0.0000000e+00
0.0000000e+00
0.0000000e+00
0.0000000e+00
0.0000000e+00
0.0000000e+00
0.0000000e+00
0.0000000e+00
0.0000000e+00
0.0000000e+00
0.0000000e+00
0.0000000e+00
0.0000000e+00
0.0000000e+00
0.0000000e+00
0.0000000e+00
0.0000000e+00
0.0000000e+00
0.0000000e+00
0.0000000e+00
0.0000000e+00
0.0000000e+00
0.0000000e+00
0.0000000e+00
0.0000000e+00
0.0000000e+00
0.0000000e+00
0.0000000e+00
0.0000000e+00
0.0000000e+00
0.0000000e+00
0.0000000e+00
0.0000000e+00
0.0000000e+00
0.0000000e+00
0.0000000e+00
0.0000000e+00
0.0000000e+00
0.0000000e+00
0.0000000e+00
0.0000000e+00
0.0000000e+00
0.0000000e+00
0.0000000e+00
0.0000000e+00
0.0000000e+00
0.0000000e+00
0.0000000e+00
0.0000000e+00
0.0000000e+00
0.0000000e+00
0.0000000e+00
0.0000000e+00
0.0000000e+00
0.0000000e+00
0.0000000e+00
0.0000000e+00
0.0000000e+00
0.0000000e+00
0.0000000e+00
0.0000000e+00
0.0000000e+00
0.0000000e+00
0.0000000e+00
0.0000000e+00
0.0000000e+00
0.0000000e+00
0.0000000e+00
0.0000000e+00
0.0000000e+00
0.0000000e+00
0.0000000e+00
0.0000000e+00
0.0000000e+00
0.0000000e+00
0.0000000e+00
0.0000000e+00
0.0000000e+00
0.0000000e+00
0.0000000e+00
0.0000000e+00
0.0000000e+00
0.0000000e+00
0.0000000e+00
0.0000000e+00
0.0000000e+00
0.0000000e+00
0.0000000e+00
0.0000000e+00
0.0000000e+00
0.0000000e+00
0.0000000e+00
0.0000000e+00
0.0000000e+00
0.0000000e+00
0.0000000e+00
0.0000000e+00
0.0000000e+00
0.0000000e+00
0.0000000e+00
0.0000000e+00
0.0000000e+00
0.0000000e+00
0.0000000e+00
0.0000000e+00
0.0000000e+00
0.0000000e+00
0.0000000e+00
0.0000000e+00
0.0000000e+00
0.0000000e+00
0.0000000e+00
0.0000000e+00
0.0000000e+00
0.0000000e+00
0.0000000e+00
0.0000000e+00
0.0000000e+00
0.0000000e+00
0.0000000e+00
0.0000000e+00
0.0000000e+00
0.0000000e+00
0.0000000e+00
0.0000000e+00
0.0000000e+00
0.0000000e+00
0.0000000e+00
0.0000000e+00
0.0000000e+00
0.0000000e+00
0.0000000e+00
0.0000000e+00
0.0000000e+00
0.0000000e+00
0.0000000e+00
0.0000000e+00
0.0000000e+00
0.0000000e+00
0.0000000e+00
0.0000000e+00
0.0000000e+00
0.0000000e+00
0.0000000e+00
0.0000000e+00
0.0000000e+00
0.0000000e+00
0.0000000e+00
0.0000000e+00
0.0000000e+00
0.0000000e+00
0.0000000e+00
0.0000000e+00
0.0000000e+00
0.0000000e+00
0.0000000e+00
0.0000000e+00
0.0000000e+00
0.0000000e+00
0.0000000e+00
0.0000000e+00
0.0000000e+00
0.0000000e+00
0.0000000e+00
0.0000000e+00
0.0000000e+00
0.0000000e+00
0.0000000e+00
0.0000000e+00
0.0000000e+00
0.0000000e+00
0.0000000e+00
0.0000000e+00
0.0000000e+00
0.0000000e+00
0.0000000e+00
0.0000000e+00
0.0000000e+00
0.0000000e+00
0.0000000e+00
0.0000000e+00
0.0000000e+00
0.0000000e+00
0.0000000e+00
0.0000000e+00
0.0000000e+00
0.0000000e+00
0.0000000e+00
0.0000000e+00
0.0000000e+00
0.0000000e+00
0.0000000e+00
0.0000000e+00
0.0000000e+00
0.0000000e+00
0.0000000e+00
0.0000000e+00
0.0000000e+00
0.0000000e+00
0.0000000e+00
0.0000000e+00
0.0000000e+00
0.0000000e+00
0.0000000e+00
0.0000000e+00
0.0000000e+00
0.0000000e+00
0.0000000e+00
0.0000000e+00
0.0000000e+00
0.0000000e+00
0.0000000e+00
0.0000000e+00
0.0000000e+00
0.0000000e+00
0.0000000e+00
0.0000000e+00
0.0000000e+00
0.0000000e+00
0.0000000e+00
0.0000000e+00
0.0000000e+00
0.0000000e+00
0.0000000e+00
0.0000000e+00
0.0000000e+00
0.0000000e+00
0.0000000e+00
0.0000000e+00
0.0000000e+00
0.0000000e+00
0.0000000e+00
0.0000000e+00
0.0000000e+00
0.0000000e+00
0.0000000e+00
0.0000000e+00
0.0000000e+00
0.0000000e+00
0.0000000e+00
0.0000000e+00
0.0000000e+00
0.0000000e+00
0.0000000e+00
0.0000000e+00
0.0000000e+00
0.0000000e+00
0.0000000e+00
0.0000000e+00
0.0000000e+00
0.0000000e+00
0.0000000e+00
1.8419306e-11
3.1390684e-07
0.0000000e+00
0.0000000e+00
0.0000000e+00
0.0000000e+00
0.0000000e+00
0.0000000e+00
0.0000000e+00
0.0000000e+00
0.0000000e+00
0.0000000e+00
0.0000000e+00
0.0000000e+00
0.0000000e+00
0.0000000e+00
0.0000000e+00
0.0000000e+00
0.0000000e+00
0.0000000e+00
0.0000000e+00
0.0000000e+00
0.0000000e+00
0.0000000e+00
0.0000000e+00
0.0000000e+00
0.0000000e+00
1.4041109e-06
0.0000000e+00
2.6993112e-07
0.0000000e+00
0.0000000e+00
0.0000000e+00
0.0000000e+00
0.0000000e+00
0.0000000e+00
0.0000000e+00
0.0000000e+00
0.0000000e+00
1.6439219e-07
0.0000000e+00
0.0000000e+00
0.0000000e+00
2.2460102e-07
0.0000000e+00
0.0000000e+00
0.0000000e+00
0.0000000e+00
0.0000000e+00
0.0000000e+00
0.0000000e+00
0.0000000e+00
0.0000000e+00
0.0000000e+00
0.0000000e+00
0.0000000e+00
0.0000000e+00
0.0000000e+00
9.5892267e-07
0.0000000e+00
0.0000000e+00
0.0000000e+00
2.0025807e-06
0.0000000e+00
0.0000000e+00
0.0000000e+00
0.0000000e+00
0.0000000e+00
0.0000000e+00
3.2368175e-07
0.0000000e+00
0.0000000e+00
0.0000000e+00
0.0000000e+00
0.0000000e+00
0.0000000e+00
0.0000000e+00
0.0000000e+00
0.0000000e+00
0.0000000e+00
0.0000000e+00
0.0000000e+00
0.0000000e+00
0.0000000e+00
0.0000000e+00
0.0000000e+00
0.0000000e+00
0.0000000e+00
1.7495771e-06
0.0000000e+00
5.1720099e-07
0.0000000e+00
0.0000000e+00
0.0000000e+00
0.0000000e+00
0.0000000e+00
0.0000000e+00
0.0000000e+00
0.0000000e+00
0.0000000e+00
0.0000000e+00
0.0000000e+00
0.0000000e+00
0.0000000e+00
0.0000000e+00
0.0000000e+00
0.0000000e+00
0.0000000e+00
0.0000000e+00
0.0000000e+00
2.6251888e-07
3.5544485e-06
0.0000000e+00
0.0000000e+00
0.0000000e+00
0.0000000e+00
0.0000000e+00
0.0000000e+00
0.0000000e+00
0.0000000e+00
0.0000000e+00
0.0000000e+00
0.0000000e+00
0.0000000e+00
0.0000000e+00
7.2727369e-07
0.0000000e+00
0.0000000e+00
0.0000000e+00
0.0000000e+00
0.0000000e+00
0.0000000e+00
0.0000000e+00
0.0000000e+00
0.0000000e+00
0.0000000e+00
9.7673797e-07
0.0000000e+00
2.3957743e-06
0.0000000e+00
0.0000000e+00
3.1889158e-07
0.0000000e+00
0.0000000e+00
0.0000000e+00
0.0000000e+00
0.0000000e+00
0.0000000e+00
0.0000000e+00
0.0000000e+00
0.0000000e+00
0.0000000e+00
0.0000000e+00
0.0000000e+00
0.0000000e+00
0.0000000e+00
0.0000000e+00
0.0000000e+00
0.0000000e+00
0.0000000e+00
0.0000000e+00
0.0000000e+00
0.0000000e+00
0.0000000e+00
1.7884524e-06
6.6229671e-07
0.0000000e+00
0.0000000e+00
0.0000000e+00
0.0000000e+00
0.0000000e+00
0.0000000e+00
0.0000000e+00
0.0000000e+00
0.0000000e+00
0.0000000e+00
0.0000000e+00
0.0000000e+00
0.0000000e+00
3.0935036e-07
0.0000000e+00
0.0000000e+00
0.0000000e+00
0.0000000e+00
0.0000000e+00
0.0000000e+00
1.7539094e-06
4.0984929e-07
0.0000000e+00
0.0000000e+00
0.0000000e+00
0.0000000e+00
0.0000000e+00
0.0000000e+00
0.0000000e+00
0.0000000e+00
7.4565770e-07
0.0000000e+00
0.0000000e+00
0.0000000e+00
0.0000000e+00
0.0000000e+00
0.0000000e+00
0.0000000e+00
0.0000000e+00
0.0000000e+00
1.4772990e-06
8.3821190e-09
1.4797067e-07
0.0000000e+00
0.0000000e+00
0.0000000e+00
0.0000000e+00
0.0000000e+00
0.0000000e+00
0.0000000e+00
1.7451134e-06
0.0000000e+00
0.0000000e+00
0.0000000e+00
0.0000000e+00
0.0000000e+00
0.0000000e+00
0.0000000e+00
6.6946143e-07
0.0000000e+00
0.0000000e+00
0.0000000e+00
0.0000000e+00
0.0000000e+00
0.0000000e+00
0.0000000e+00
0.0000000e+00
0.0000000e+00
0.0000000e+00
0.0000000e+00
9.0054203e-07
0.0000000e+00
0.0000000e+00
0.0000000e+00
0.0000000e+00
0.0000000e+00
0.0000000e+00
0.0000000e+00
0.0000000e+00
0.0000000e+00
0.0000000e+00
0.0000000e+00
0.0000000e+00
0.0000000e+00
0.0000000e+00
0.0000000e+00
2.8077991e-06
0.0000000e+00
0.0000000e+00
0.0000000e+00
4.3840231e-07
0.0000000e+00
0.0000000e+00
0.0000000e+00
0.0000000e+00
0.0000000e+00
0.0000000e+00
0.0000000e+00
0.0000000e+00
0.0000000e+00
0.0000000e+00
0.0000000e+00
0.0000000e+00
0.0000000e+00
4.1360897e-07
0.0000000e+00
0.0000000e+00
0.0000000e+00
0.0000000e+00
0.0000000e+00
0.0000000e+00
5.0978173e-07
0.0000000e+00
0.0000000e+00
0.0000000e+00
0.0000000e+00
0.0000000e+00
0.0000000e+00
0.0000000e+00
0.0000000e+00
0.0000000e+00
0.0000000e+00
0.0000000e+00
0.0000000e+00
0.0000000e+00
0.0000000e+00
0.0000000e+00
1.7788885e-06
0.0000000e+00
0.0000000e+00
0.0000000e+00
2.9634251e-07
0.0000000e+00
0.0000000e+00
0.0000000e+00
0.0000000e+00
0.0000000e+00
0.0000000e+00
0.0000000e+00
0.0000000e+00
0.0000000e+00
0.0000000e+00
0.0000000e+00
0.0000000e+00
0.0000000e+00
7.3131594e-07
0.0000000e+00
0.0000000e+00
0.0000000e+00
0.0000000e+00
0.0000000e+00
0.0000000e+00
0.0000000e+00
0.0000000e+00
0.0000000e+00
0.0000000e+00
0.0000000e+00
0.0000000e+00
0.0000000e+00
0.0000000e+00
0.0000000e+00
0.0000000e+00
0.0000000e+00
0.0000000e+00
0.0000000e+00
0.0000000e+00
0.0000000e+00
0.0000000e+00
0.0000000e+00
0.0000000e+00
0.0000000e+00
2.7908175e-07
0.0000000e+00
0.0000000e+00
0.0000000e+00
0.0000000e+00
0.0000000e+00
0.0000000e+00
2.0381646e-07
0.0000000e+00
0.0000000e+00
0.0000000e+00
6.4529149e-07
0.0000000e+00
0.0000000e+00
0.0000000e+00
0.0000000e+00
0.0000000e+00
0.0000000e+00
0.0000000e+00
0.0000000e+00
0.0000000e+00
0.0000000e+00
0.0000000e+00
0.0000000e+00
0.0000000e+00
6.3712150e-07
0.0000000e+00
0.0000000e+00
0.0000000e+00
0.0000000e+00
0.0000000e+00
0.0000000e+00
0.0000000e+00
0.0000000e+00
0.0000000e+00
0.0000000e+00
0.0000000e+00
0.0000000e+00
0.0000000e+00
0.0000000e+00
0.0000000e+00
3.0037262e-07
0.0000000e+00
0.0000000e+00
0.0000000e+00
0.0000000e+00
0.0000000e+00
0.0000000e+00
0.0000000e+00
0.0000000e+00
4.6618101e-07
0.0000000e+00
0.0000000e+00
0.0000000e+00
0.0000000e+00
0.0000000e+00
0.0000000e+00
0.0000000e+00
0.0000000e+00
0.0000000e+00
0.0000000e+00
0.0000000e+00
0.0000000e+00
0.0000000e+00
0.0000000e+00
0.0000000e+00
0.0000000e+00
0.0000000e+00
0.0000000e+00
0.0000000e+00
0.0000000e+00
0.0000000e+00
0.0000000e+00
0.0000000e+00
0.0000000e+00
0.0000000e+00
0.0000000e+00
0.0000000e+00
0.0000000e+00
0.0000000e+00
4.3945002e-07
0.0000000e+00
0.0000000e+00
0.0000000e+00
0.0000000e+00
0.0000000e+00
0.0000000e+00
0.0000000e+00
0.0000000e+00
0.0000000e+00
0.0000000e+00
0.0000000e+00
0.0000000e+00
0.0000000e+00
0.0000000e+00
0.0000000e+00
0.0000000e+00
0.0000000e+00
0.0000000e+00
0.0000000e+00
0.0000000e+00
0.0000000e+00
0.0000000e+00
0.0000000e+00
0.0000000e+00
0.0000000e+00
0.0000000e+00
0.0000000e+00
0.0000000e+00
1.1513349e-07
0.0000000e+00
0.0000000e+00
0.0000000e+00
0.0000000e+00
0.0000000e+00
0.0000000e+00
0.0000000e+00
0.0000000e+00
0.0000000e+00
0.0000000e+00
0.0000000e+00
0.0000000e+00
0.0000000e+00
0.0000000e+00
0.0000000e+00
0.0000000e+00
0.0000000e+00
0.0000000e+00
0.0000000e+00
0.0000000e+00
0.0000000e+00
0.0000000e+00
0.0000000e+00
0.0000000e+00
0.0000000e+00
0.0000000e+00
0.0000000e+00
0.0000000e+00
0.0000000e+00
0.0000000e+00
0.0000000e+00
0.0000000e+00
0.0000000e+00
0.0000000e+00
0.0000000e+00
0.0000000e+00
0.0000000e+00
0.0000000e+00
0.0000000e+00
0.0000000e+00
0.0000000e+00
0.0000000e+00
0.0000000e+00
0.0000000e+00
0.0000000e+00
0.0000000e+00
0.0000000e+00
0.0000000e+00
0.0000000e+00
0.0000000e+00
0.0000000e+00
0.0000000e+00
0.0000000e+00
0.0000000e+00
0.0000000e+00
0.0000000e+00
0.0000000e+00
0.0000000e+00
0.0000000e+00
0.0000000e+00
0.0000000e+00
0.0000000e+00
0.0000000e+00
0.0000000e+00
0.0000000e+00
0.0000000e+00
0.0000000e+00
0.0000000e+00
0.0000000e+00
0.0000000e+00
0.0000000e+00
0.0000000e+00
0.0000000e+00
0.0000000e+00
0.0000000e+00
0.0000000e+00
0.0000000e+00
0.0000000e+00
0.0000000e+00
0.0000000e+00
0.0000000e+00
0.0000000e+00
0.0000000e+00
0.0000000e+00
0.0000000e+00
0.0000000e+00
0.0000000e+00
0.0000000e+00
0.0000000e+00
0.0000000e+00
0.0000000e+00
0.0000000e+00
0.0000000e+00
0.0000000e+00
0.0000000e+00
0.0000000e+00
0.0000000e+00
0.0000000e+00
0.0000000e+00
0.0000000e+00
0.0000000e+00
0.0000000e+00
0.0000000e+00
0.0000000e+00
0.0000000e+00
0.0000000e+00
0.0000000e+00
0.0000000e+00
0.0000000e+00
0.0000000e+00
0.0000000e+00
0.0000000e+00
0.0000000e+00
0.0000000e+00
0.0000000e+00
0.0000000e+00
0.0000000e+00
0.0000000e+00
0.0000000e+00
0.0000000e+00
0.0000000e+00
0.0000000e+00
0.0000000e+00
0.0000000e+00
0.0000000e+00
0.0000000e+00
0.0000000e+00
0.0000000e+00
0.0000000e+00
0.0000000e+00
0.0000000e+00
0.0000000e+00
0.0000000e+00
0.0000000e+00
0.0000000e+00
0.0000000e+00
0.0000000e+00
0.0000000e+00
0.0000000e+00
0.0000000e+00
0.0000000e+00
0.0000000e+00
0.0000000e+00
0.0000000e+00
0.0000000e+00
0.0000000e+00
0.0000000e+00
0.0000000e+00
0.0000000e+00
0.0000000e+00
0.0000000e+00
0.0000000e+00
0.0000000e+00
0.0000000e+00
0.0000000e+00
0.0000000e+00
0.0000000e+00
0.0000000e+00
0.0000000e+00
0.0000000e+00
0.0000000e+00
0.0000000e+00
0.0000000e+00
0.0000000e+00
0.0000000e+00
0.0000000e+00
0.0000000e+00
0.0000000e+00
0.0000000e+00
0.0000000e+00
0.0000000e+00
0.0000000e+00
0.0000000e+00
0.0000000e+00
0.0000000e+00
0.0000000e+00
0.0000000e+00
0.0000000e+00
0.0000000e+00
0.0000000e+00
0.0000000e+00
0.0000000e+00
0.0000000e+00
0.0000000e+00
0.0000000e+00
0.0000000e+00
0.0000000e+00
0.0000000e+00
0.0000000e+00
0.0000000e+00
0.0000000e+00
0.0000000e+00
0.0000000e+00
0.0000000e+00
0.0000000e+00
0.0000000e+00
0.0000000e+00
0.0000000e+00
0.0000000e+00
0.0000000e+00
0.0000000e+00
0.0000000e+00
0.0000000e+00
0.0000000e+00
0.0000000e+00
0.0000000e+00
0.0000000e+00
0.0000000e+00
0.0000000e+00
0.0000000e+00
0.0000000e+00
0.0000000e+00
0.0000000e+00
0.0000000e+00
0.0000000e+00
0.0000000e+00
0.0000000e+00
0.0000000e+00
0.0000000e+00
0.0000000e+00
0.0000000e+00
0.0000000e+00
0.0000000e+00
0.0000000e+00
0.0000000e+00
0.0000000e+00
0.0000000e+00
0.0000000e+00
0.0000000e+00
0.0000000e+00
0.0000000e+00
0.0000000e+00
0.0000000e+00
0.0000000e+00
0.0000000e+00
0.0000000e+00
0.0000000e+00
0.0000000e+00
0.0000000e+00
0.0000000e+00
0.0000000e+00
0.0000000e+00
0.0000000e+00
0.0000000e+00
0.0000000e+00
0.0000000e+00
0.0000000e+00
0.0000000e+00
0.0000000e+00
0.0000000e+00
0.0000000e+00
0.0000000e+00
0.0000000e+00
0.0000000e+00
0.0000000e+00
0.0000000e+00
0.0000000e+00
0.0000000e+00
0.0000000e+00
0.0000000e+00
0.0000000e+00
0.0000000e+00
0.0000000e+00
0.0000000e+00
0.0000000e+00
0.0000000e+00
0.0000000e+00
0.0000000e+00
0.0000000e+00
0.0000000e+00
0.0000000e+00
0.0000000e+00
0.0000000e+00
0.0000000e+00
0.0000000e+00
0.0000000e+00
0.0000000e+00
0.0000000e+00
0.0000000e+00
0.0000000e+00
0.0000000e+00
0.0000000e+00
0.0000000e+00
0.0000000e+00
0.0000000e+00
0.0000000e+00
0.0000000e+00
0.0000000e+00
0.0000000e+00
0.0000000e+00
0.0000000e+00
0.0000000e+00
0.0000000e+00
0.0000000e+00
0.0000000e+00
0.0000000e+00
0.0000000e+00
0.0000000e+00
0.0000000e+00
0.0000000e+00
0.0000000e+00
0.0000000e+00
0.0000000e+00
0.0000000e+00
0.0000000e+00
0.0000000e+00
0.0000000e+00
0.0000000e+00
0.0000000e+00
0.0000000e+00
0.0000000e+00
0.0000000e+00
0.0000000e+00
0.0000000e+00
0.0000000e+00
0.0000000e+00
0.0000000e+00
0.0000000e+00
0.0000000e+00
0.0000000e+00
0.0000000e+00
0.0000000e+00
0.0000000e+00
0.0000000e+00
0.0000000e+00
0.0000000e+00
0.0000000e+00
0.0000000e+00
0.0000000e+00
0.0000000e+00
0.0000000e+00
0.0000000e+00
0.0000000e+00
0.0000000e+00
0.0000000e+00
0.0000000e+00
0.0000000e+00
0.0000000e+00
0.0000000e+00
0.0000000e+00
0.0000000e+00
0.0000000e+00
0.0000000e+00
0.0000000e+00
0.0000000e+00
0.0000000e+00
0.0000000e+00
0.0000000e+00
0.0000000e+00
0.0000000e+00
0.0000000e+00
0.0000000e+00
0.0000000e+00
0.0000000e+00
0.0000000e+00
0.0000000e+00
0.0000000e+00
0.0000000e+00
0.0000000e+00
0.0000000e+00
0.0000000e+00
0.0000000e+00
0.0000000e+00
0.0000000e+00
0.0000000e+00
0.0000000e+00
0.0000000e+00
0.0000000e+00
0.0000000e+00
0.0000000e+00
0.0000000e+00
0.0000000e+00
0.0000000e+00
0.0000000e+00
0.0000000e+00
0.0000000e+00
0.0000000e+00
0.0000000e+00
0.0000000e+00
0.0000000e+00
0.0000000e+00
0.0000000e+00
0.0000000e+00
0.0000000e+00
0.0000000e+00
0.0000000e+00
0.0000000e+00
0.0000000e+00
0.0000000e+00
0.0000000e+00
0.0000000e+00
0.0000000e+00
0.0000000e+00
0.0000000e+00
0.0000000e+00
0.0000000e+00
0.0000000e+00
0.0000000e+00
0.0000000e+00
0.0000000e+00
0.0000000e+00
0.0000000e+00
0.0000000e+00
0.0000000e+00
0.0000000e+00
0.0000000e+00
0.0000000e+00
0.0000000e+00
0.0000000e+00
0.0000000e+00
0.0000000e+00
0.0000000e+00
0.0000000e+00
0.0000000e+00
0.0000000e+00
0.0000000e+00
0.0000000e+00
0.0000000e+00
0.0000000e+00
0.0000000e+00
0.0000000e+00
0.0000000e+00
0.0000000e+00
0.0000000e+00
0.0000000e+00
0.0000000e+00
0.0000000e+00
0.0000000e+00
0.0000000e+00
0.0000000e+00
0.0000000e+00
0.0000000e+00
0.0000000e+00
0.0000000e+00
0.0000000e+00
0.0000000e+00
0.0000000e+00
0.0000000e+00
0.0000000e+00
0.0000000e+00
0.0000000e+00
0.0000000e+00
0.0000000e+00
0.0000000e+00
0.0000000e+00
0.0000000e+00
0.0000000e+00
0.0000000e+00
0.0000000e+00
0.0000000e+00
0.0000000e+00
0.0000000e+00
0.0000000e+00
0.0000000e+00
0.0000000e+00
0.0000000e+00
0.0000000e+00
0.0000000e+00
0.0000000e+00
0.0000000e+00
0.0000000e+00
0.0000000e+00
0.0000000e+00
0.0000000e+00
0.0000000e+00
0.0000000e+00
0.0000000e+00
0.0000000e+00
0.0000000e+00
0.0000000e+00
0.0000000e+00
0.0000000e+00
0.0000000e+00
0.0000000e+00
0.0000000e+00
0.0000000e+00
0.0000000e+00
0.0000000e+00
0.0000000e+00
0.0000000e+00
0.0000000e+00
0.0000000e+00
0.0000000e+00
0.0000000e+00
0.0000000e+00
0.0000000e+00
0.0000000e+00
0.0000000e+00
0.0000000e+00
0.0000000e+00
0.0000000e+00
0.0000000e+00
0.0000000e+00
0.0000000e+00
0.0000000e+00
0.0000000e+00
0.0000000e+00
0.0000000e+00
0.0000000e+00
0.0000000e+00
0.0000000e+00
0.0000000e+00
0.0000000e+00
0.0000000e+00
0.0000000e+00
0.0000000e+00
0.0000000e+00
0.0000000e+00
0.0000000e+00
0.0000000e+00
0.0000000e+00
0.0000000e+00
0.0000000e+00
0.0000000e+00
0.0000000e+00
0.0000000e+00
0.0000000e+00
0.0000000e+00
0.0000000e+00
0.0000000e+00
0.0000000e+00
0.0000000e+00
0.0000000e+00
0.0000000e+00
0.0000000e+00
0.0000000e+00
0.0000000e+00
0.0000000e+00
0.0000000e+00
0.0000000e+00
0.0000000e+00
0.0000000e+00
0.0000000e+00
0.0000000e+00
0.0000000e+00
0.0000000e+00
0.0000000e+00
0.0000000e+00
0.0000000e+00
0.0000000e+00
0.0000000e+00
0.0000000e+00
0.0000000e+00
0.0000000e+00
0.0000000e+00
0.0000000e+00
0.0000000e+00
0.0000000e+00
0.0000000e+00
0.0000000e+00
0.0000000e+00
0.0000000e+00
0.0000000e+00
0.0000000e+00
0.0000000e+00
0.0000000e+00
0.0000000e+00
0.0000000e+00
0.0000000e+00
0.0000000e+00
0.0000000e+00
0.0000000e+00
0.0000000e+00
0.0000000e+00
0.0000000e+00
0.0000000e+00
0.0000000e+00
0.0000000e+00
0.0000000e+00
0.0000000e+00
0.0000000e+00
0.0000000e+00
0.0000000e+00
0.0000000e+00
0.0000000e+00
0.0000000e+00
0.0000000e+00
0.0000000e+00
0.0000000e+00
0.0000000e+00
0.0000000e+00
0.0000000e+00
0.0000000e+00
0.0000000e+00
0.0000000e+00
0.0000000e+00
0.0000000e+00
0.0000000e+00
0.0000000e+00
0.0000000e+00
0.0000000e+00
0.0000000e+00
0.0000000e+00
0.0000000e+00
0.0000000e+00
0.0000000e+00
0.0000000e+00
0.0000000e+00
0.0000000e+00
0.0000000e+00
0.0000000e+00
0.0000000e+00
0.0000000e+00
0.0000000e+00
0.0000000e+00
0.0000000e+00
0.0000000e+00
0.0000000e+00
0.0000000e+00
0.0000000e+00
0.0000000e+00
0.0000000e+00
0.0000000e+00
0.0000000e+00
0.0000000e+00
0.0000000e+00
0.0000000e+00
0.0000000e+00
0.0000000e+00
0.0000000e+00
0.0000000e+00
0.0000000e+00
0.0000000e+00
0.0000000e+00
0.0000000e+00
0.0000000e+00
0.0000000e+00
0.0000000e+00
0.0000000e+00
0.0000000e+00
0.0000000e+00
0.0000000e+00
0.0000000e+00
0.0000000e+00
0.0000000e+00
0.0000000e+00
0.0000000e+00
0.0000000e+00
0.0000000e+00
0.0000000e+00
0.0000000e+00
0.0000000e+00
0.0000000e+00
0.0000000e+00
0.0000000e+00
0.0000000e+00
0.0000000e+00
0.0000000e+00
0.0000000e+00
0.0000000e+00
0.0000000e+00
0.0000000e+00
0.0000000e+00
0.0000000e+00
0.0000000e+00
0.0000000e+00
0.0000000e+00
0.0000000e+00
0.0000000e+00
0.0000000e+00
0.0000000e+00
0.0000000e+00
0.0000000e+00
0.0000000e+00
0.0000000e+00
0.0000000e+00
0.0000000e+00
0.0000000e+00
0.0000000e+00
0.0000000e+00
0.0000000e+00
0.0000000e+00
0.0000000e+00
0.0000000e+00
0.0000000e+00
0.0000000e+00
0.0000000e+00
0.0000000e+00
0.0000000e+00
0.0000000e+00
0.0000000e+00
0.0000000e+00
0.0000000e+00
0.0000000e+00
0.0000000e+00
0.0000000e+00
0.0000000e+00
0.0000000e+00
0.0000000e+00
0.0000000e+00
0.0000000e+00
0.0000000e+00
0.0000000e+00
0.0000000e+00
0.0000000e+00
0.0000000e+00
0.0000000e+00
0.0000000e+00
0.0000000e+00
0.0000000e+00
0.0000000e+00
0.0000000e+00
0.0000000e+00
0.0000000e+00
0.0000000e+00
0.0000000e+00
0.0000000e+00
0.0000000e+00
0.0000000e+00
0.0000000e+00
0.0000000e+00
0.0000000e+00
0.0000000e+00
0.0000000e+00
0.0000000e+00
0.0000000e+00
0.0000000e+00
0.0000000e+00
0.0000000e+00
0.0000000e+00
0.0000000e+00
0.0000000e+00
0.0000000e+00
0.0000000e+00
0.0000000e+00
0.0000000e+00
0.0000000e+00
0.0000000e+00
0.0000000e+00
0.0000000e+00
0.0000000e+00
0.0000000e+00
0.0000000e+00
0.0000000e+00
0.0000000e+00
0.0000000e+00
0.0000000e+00
0.0000000e+00
0.0000000e+00
0.0000000e+00
0.0000000e+00
0.0000000e+00
0.0000000e+00
0.0000000e+00
0.0000000e+00
0.0000000e+00
0.0000000e+00
0.0000000e+00
0.0000000e+00
0.0000000e+00
0.0000000e+00
0.0000000e+00
0.0000000e+00
0.0000000e+00
0.0000000e+00
0.0000000e+00
0.0000000e+00
0.0000000e+00
0.0000000e+00
0.0000000e+00
0.0000000e+00
0.0000000e+00
0.0000000e+00
0.0000000e+00
0.0000000e+00
0.0000000e+00
0.0000000e+00
0.0000000e+00
0.0000000e+00
0.0000000e+00
0.0000000e+00
0.0000000e+00
0.0000000e+00
0.0000000e+00
0.0000000e+00
0.0000000e+00
0.0000000e+00
0.0000000e+00
0.0000000e+00
0.0000000e+00
0.0000000e+00
0.0000000e+00
0.0000000e+00
0.0000000e+00
0.0000000e+00
0.0000000e+00
0.0000000e+00
0.0000000e+00
0.0000000e+00
0.0000000e+00
0.0000000e+00
0.0000000e+00
0.0000000e+00
0.0000000e+00
0.0000000e+00
0.0000000e+00
0.0000000e+00
0.0000000e+00
0.0000000e+00
0.0000000e+00
0.0000000e+00
0.0000000e+00
0.0000000e+00
0.0000000e+00
0.0000000e+00
0.0000000e+00
0.0000000e+00
0.0000000e+00
0.0000000e+00
0.0000000e+00
0.0000000e+00
0.0000000e+00
0.0000000e+00
0.0000000e+00
0.0000000e+00
0.0000000e+00
0.0000000e+00
0.0000000e+00
0.0000000e+00
0.0000000e+00
0.0000000e+00
0.0000000e+00
0.0000000e+00
0.0000000e+00
0.0000000e+00
0.0000000e+00
0.0000000e+00
0.0000000e+00
0.0000000e+00
0.0000000e+00
0.0000000e+00
0.0000000e+00
0.0000000e+00
0.0000000e+00
0.0000000e+00
0.0000000e+00
0.0000000e+00
0.0000000e+00
0.0000000e+00
0.0000000e+00
0.0000000e+00
0.0000000e+00
0.0000000e+00
0.0000000e+00
0.0000000e+00
0.0000000e+00
0.0000000e+00
0.0000000e+00
0.0000000e+00
0.0000000e+00
0.0000000e+00
0.0000000e+00
0.0000000e+00
0.0000000e+00
0.0000000e+00
0.0000000e+00
0.0000000e+00
0.0000000e+00
0.0000000e+00
0.0000000e+00
0.0000000e+00
0.0000000e+00
0.0000000e+00
0.0000000e+00
0.0000000e+00
0.0000000e+00
0.0000000e+00
0.0000000e+00
0.0000000e+00
0.0000000e+00
0.0000000e+00
0.0000000e+00
0.0000000e+00
0.0000000e+00
0.0000000e+00
0.0000000e+00
0.0000000e+00
0.0000000e+00
0.0000000e+00
0.0000000e+00
0.0000000e+00
0.0000000e+00
0.0000000e+00
0.0000000e+00
0.0000000e+00
0.0000000e+00
0.0000000e+00
0.0000000e+00
0.0000000e+00
0.0000000e+00
0.0000000e+00
0.0000000e+00
0.0000000e+00
0.0000000e+00
0.0000000e+00
0.0000000e+00
0.0000000e+00
0.0000000e+00
0.0000000e+00
0.0000000e+00
0.0000000e+00
0.0000000e+00
0.0000000e+00
0.0000000e+00
0.0000000e+00
0.0000000e+00
0.0000000e+00
0.0000000e+00
0.0000000e+00
0.0000000e+00
0.0000000e+00
0.0000000e+00
0.0000000e+00
0.0000000e+00
0.0000000e+00
0.0000000e+00
0.0000000e+00
0.0000000e+00
0.0000000e+00
0.0000000e+00
0.0000000e+00
0.0000000e+00
0.0000000e+00
0.0000000e+00
0.0000000e+00
0.0000000e+00
0.0000000e+00
0.0000000e+00
0.0000000e+00
0.0000000e+00
0.0000000e+00
0.0000000e+00
0.0000000e+00
0.0000000e+00
0.0000000e+00
0.0000000e+00
0.0000000e+00
0.0000000e+00
0.0000000e+00
0.0000000e+00
0.0000000e+00
0.0000000e+00
0.0000000e+00
0.0000000e+00
0.0000000e+00
0.0000000e+00
0.0000000e+00
0.0000000e+00
0.0000000e+00
0.0000000e+00
0.0000000e+00
0.0000000e+00
0.0000000e+00
0.0000000e+00
0.0000000e+00
0.0000000e+00
0.0000000e+00
0.0000000e+00
0.0000000e+00
0.0000000e+00
0.0000000e+00
0.0000000e+00
0.0000000e+00
0.0000000e+00
0.0000000e+00
0.0000000e+00
0.0000000e+00
0.0000000e+00
0.0000000e+00
0.0000000e+00
0.0000000e+00
0.0000000e+00
0.0000000e+00
0.0000000e+00
0.0000000e+00
0.0000000e+00
0.0000000e+00
0.0000000e+00
0.0000000e+00
0.0000000e+00
0.0000000e+00
0.0000000e+00
0.0000000e+00
0.0000000e+00
0.0000000e+00
0.0000000e+00
0.0000000e+00
0.0000000e+00
0.0000000e+00
0.0000000e+00
0.0000000e+00
0.0000000e+00
0.0000000e+00
0.0000000e+00
0.0000000e+00
0.0000000e+00
0.0000000e+00
0.0000000e+00
0.0000000e+00
0.0000000e+00
0.0000000e+00
0.0000000e+00
0.0000000e+00
0.0000000e+00
0.0000000e+00
0.0000000e+00
0.0000000e+00
0.0000000e+00
0.0000000e+00
0.0000000e+00
0.0000000e+00
0.0000000e+00
0.0000000e+00
0.0000000e+00
0.0000000e+00
0.0000000e+00
0.0000000e+00
0.0000000e+00
0.0000000e+00
0.0000000e+00
0.0000000e+00
0.0000000e+00
0.0000000e+00
0.0000000e+00
0.0000000e+00
0.0000000e+00
0.0000000e+00
0.0000000e+00
0.0000000e+00
0.0000000e+00
0.0000000e+00
0.0000000e+00
0.0000000e+00
0.0000000e+00
0.0000000e+00
0.0000000e+00
0.0000000e+00
0.0000000e+00
0.0000000e+00
0.0000000e+00
0.0000000e+00
0.0000000e+00
0.0000000e+00
0.0000000e+00
0.0000000e+00
0.0000000e+00
0.0000000e+00
0.0000000e+00
0.0000000e+00
0.0000000e+00
0.0000000e+00
0.0000000e+00
0.0000000e+00
0.0000000e+00
0.0000000e+00
0.0000000e+00
0.0000000e+00
0.0000000e+00
0.0000000e+00
0.0000000e+00
0.0000000e+00
0.0000000e+00
0.0000000e+00
0.0000000e+00
0.0000000e+00
0.0000000e+00
0.0000000e+00
0.0000000e+00
0.0000000e+00
0.0000000e+00
0.0000000e+00
0.0000000e+00
0.0000000e+00
0.0000000e+00
0.0000000e+00
0.0000000e+00
0.0000000e+00
0.0000000e+00
0.0000000e+00
0.0000000e+00
0.0000000e+00
0.0000000e+00
0.0000000e+00
0.0000000e+00
0.0000000e+00
0.0000000e+00
0.0000000e+00
0.0000000e+00
0.0000000e+00
0.0000000e+00
0.0000000e+00
0.0000000e+00
0.0000000e+00
0.0000000e+00
0.0000000e+00
0.0000000e+00
0.0000000e+00
0.0000000e+00
0.0000000e+00
0.0000000e+00
0.0000000e+00
0.0000000e+00
0.0000000e+00
0.0000000e+00
0.0000000e+00
0.0000000e+00
0.0000000e+00
0.0000000e+00
0.0000000e+00
0.0000000e+00
0.0000000e+00
0.0000000e+00
0.0000000e+00
0.0000000e+00
0.0000000e+00
0.0000000e+00
0.0000000e+00
0.0000000e+00
0.0000000e+00
0.0000000e+00
0.0000000e+00
0.0000000e+00
0.0000000e+00
0.0000000e+00
0.0000000e+00
0.0000000e+00
0.0000000e+00
0.0000000e+00
0.0000000e+00
0.0000000e+00
0.0000000e+00
0.0000000e+00
0.0000000e+00
0.0000000e+00
0.0000000e+00
0.0000000e+00
0.0000000e+00
0.0000000e+00
0.0000000e+00
0.0000000e+00
0.0000000e+00
0.0000000e+00
0.0000000e+00
0.0000000e+00
0.0000000e+00
0.0000000e+00
0.0000000e+00
0.0000000e+00
0.0000000e+00
0.0000000e+00
0.0000000e+00
0.0000000e+00
0.0000000e+00
0.0000000e+00
0.0000000e+00
0.0000000e+00
0.0000000e+00
0.0000000e+00
0.0000000e+00
0.0000000e+00
0.0000000e+00
0.0000000e+00
0.0000000e+00
0.0000000e+00
0.0000000e+00
0.0000000e+00
0.0000000e+00
0.0000000e+00
0.0000000e+00
0.0000000e+00
0.0000000e+00
0.0000000e+00
0.0000000e+00
0.0000000e+00
0.0000000e+00
0.0000000e+00
0.0000000e+00
0.0000000e+00
0.0000000e+00
0.0000000e+00
0.0000000e+00
0.0000000e+00
0.0000000e+00
0.0000000e+00
0.0000000e+00
0.0000000e+00
0.0000000e+00
0.0000000e+00
0.0000000e+00
0.0000000e+00
0.0000000e+00
0.0000000e+00
0.0000000e+00
0.0000000e+00
0.0000000e+00
0.0000000e+00
0.0000000e+00
0.0000000e+00
0.0000000e+00
0.0000000e+00
0.0000000e+00
0.0000000e+00
0.0000000e+00
0.0000000e+00
0.0000000e+00
0.0000000e+00
0.0000000e+00
0.0000000e+00
0.0000000e+00
0.0000000e+00
0.0000000e+00
0.0000000e+00
0.0000000e+00
0.0000000e+00
0.0000000e+00
0.0000000e+00
0.0000000e+00
0.0000000e+00
0.0000000e+00
0.0000000e+00
0.0000000e+00
0.0000000e+00
0.0000000e+00
0.0000000e+00
0.0000000e+00
0.0000000e+00
0.0000000e+00
0.0000000e+00
0.0000000e+00
0.0000000e+00
0.0000000e+00
0.0000000e+00
0.0000000e+00
0.0000000e+00
0.0000000e+00
0.0000000e+00
0.0000000e+00
0.0000000e+00
0.0000000e+00
0.0000000e+00
0.0000000e+00
0.0000000e+00
0.0000000e+00
0.0000000e+00
0.0000000e+00
0.0000000e+00
0.0000000e+00
0.0000000e+00
0.0000000e+00
0.0000000e+00
0.0000000e+00
0.0000000e+00
0.0000000e+00
0.0000000e+00
0.0000000e+00
0.0000000e+00
0.0000000e+00
0.0000000e+00
0.0000000e+00
0.0000000e+00
0.0000000e+00
0.0000000e+00
0.0000000e+00
0.0000000e+00
0.0000000e+00
0.0000000e+00
0.0000000e+00
0.0000000e+00
0.0000000e+00
0.0000000e+00
0.0000000e+00
0.0000000e+00
0.0000000e+00
0.0000000e+00
0.0000000e+00
0.0000000e+00
0.0000000e+00
0.0000000e+00
0.0000000e+00
0.0000000e+00
0.0000000e+00
0.0000000e+00
0.0000000e+00
0.0000000e+00
0.0000000e+00
0.0000000e+00
0.0000000e+00
0.0000000e+00
AUGMENTED_NORMAL_CONTACT_PRESSURE 1 2292  float
0.0000000e+00
0.0000000e+00
0.0000000e+00
0.0000000e+00
0.0000000e+00
0.0000000e+00
0.0000000e+00
0.0000000e+00
0.0000000e+00
0.0000000e+00
0.0000000e+00
0.0000000e+00
0.0000000e+00
0.0000000e+00
0.0000000e+00
0.0000000e+00
0.0000000e+00
0.0000000e+00
0.0000000e+00
0.0000000e+00
0.0000000e+00
0.0000000e+00
0.0000000e+00
0.0000000e+00
0.0000000e+00
0.0000000e+00
0.0000000e+00
0.0000000e+00
0.0000000e+00
0.0000000e+00
0.0000000e+00
0.0000000e+00
0.0000000e+00
0.0000000e+00
0.0000000e+00
0.0000000e+00
0.0000000e+00
0.0000000e+00
0.0000000e+00
0.0000000e+00
0.0000000e+00
0.0000000e+00
0.0000000e+00
0.0000000e+00
0.0000000e+00
0.0000000e+00
0.0000000e+00
0.0000000e+00
0.0000000e+00
0.0000000e+00
0.0000000e+00
0.0000000e+00
0.0000000e+00
0.0000000e+00
0.0000000e+00
0.0000000e+00
0.0000000e+00
0.0000000e+00
0.0000000e+00
0.0000000e+00
0.0000000e+00
0.0000000e+00
0.0000000e+00
0.0000000e+00
0.0000000e+00
0.0000000e+00
0.0000000e+00
0.0000000e+00
0.0000000e+00
0.0000000e+00
0.0000000e+00
0.0000000e+00
0.0000000e+00
0.0000000e+00
0.0000000e+00
0.0000000e+00
0.0000000e+00
0.0000000e+00
0.0000000e+00
0.0000000e+00
0.0000000e+00
0.0000000e+00
0.0000000e+00
0.0000000e+00
0.0000000e+00
0.0000000e+00
0.0000000e+00
0.0000000e+00
0.0000000e+00
0.0000000e+00
0.0000000e+00
0.0000000e+00
0.0000000e+00
0.0000000e+00
0.0000000e+00
0.0000000e+00
0.0000000e+00
0.0000000e+00
0.0000000e+00
0.0000000e+00
0.0000000e+00
0.0000000e+00
0.0000000e+00
0.0000000e+00
0.0000000e+00
0.0000000e+00
0.0000000e+00
0.0000000e+00
0.0000000e+00
0.0000000e+00
0.0000000e+00
0.0000000e+00
0.0000000e+00
0.0000000e+00
0.0000000e+00
0.0000000e+00
0.0000000e+00
0.0000000e+00
0.0000000e+00
0.0000000e+00
0.0000000e+00
0.0000000e+00
0.0000000e+00
0.0000000e+00
0.0000000e+00
0.0000000e+00
0.0000000e+00
0.0000000e+00
0.0000000e+00
0.0000000e+00
0.0000000e+00
0.0000000e+00
0.0000000e+00
0.0000000e+00
0.0000000e+00
0.0000000e+00
0.0000000e+00
0.0000000e+00
0.0000000e+00
0.0000000e+00
0.0000000e+00
0.0000000e+00
0.0000000e+00
0.0000000e+00
0.0000000e+00
0.0000000e+00
0.0000000e+00
0.0000000e+00
0.0000000e+00
0.0000000e+00
0.0000000e+00
0.0000000e+00
0.0000000e+00
0.0000000e+00
0.0000000e+00
0.0000000e+00
0.0000000e+00
0.0000000e+00
0.0000000e+00
0.0000000e+00
0.0000000e+00
0.0000000e+00
0.0000000e+00
0.0000000e+00
0.0000000e+00
0.0000000e+00
0.0000000e+00
0.0000000e+00
0.0000000e+00
0.0000000e+00
0.0000000e+00
0.0000000e+00
0.0000000e+00
0.0000000e+00
0.0000000e+00
0.0000000e+00
0.0000000e+00
0.0000000e+00
0.0000000e+00
0.0000000e+00
0.0000000e+00
0.0000000e+00
0.0000000e+00
0.0000000e+00
0.0000000e+00
0.0000000e+00
0.0000000e+00
0.0000000e+00
0.0000000e+00
0.0000000e+00
0.0000000e+00
0.0000000e+00
0.0000000e+00
0.0000000e+00
0.0000000e+00
0.0000000e+00
0.0000000e+00
0.0000000e+00
0.0000000e+00
0.0000000e+00
0.0000000e+00
0.0000000e+00
0.0000000e+00
0.0000000e+00
0.0000000e+00
0.0000000e+00
0.0000000e+00
0.0000000e+00
0.0000000e+00
0.0000000e+00
0.0000000e+00
0.0000000e+00
0.0000000e+00
0.0000000e+00
0.0000000e+00
0.0000000e+00
0.0000000e+00
0.0000000e+00
0.0000000e+00
0.0000000e+00
0.0000000e+00
0.0000000e+00
0.0000000e+00
0.0000000e+00
0.0000000e+00
0.0000000e+00
0.0000000e+00
0.0000000e+00
0.0000000e+00
0.0000000e+00
0.0000000e+00
0.0000000e+00
0.0000000e+00
0.0000000e+00
0.0000000e+00
0.0000000e+00
0.0000000e+00
0.0000000e+00
0.0000000e+00
0.0000000e+00
0.0000000e+00
0.0000000e+00
0.0000000e+00
0.0000000e+00
0.0000000e+00
0.0000000e+00
0.0000000e+00
0.0000000e+00
0.0000000e+00
0.0000000e+00
0.0000000e+00
0.0000000e+00
0.0000000e+00
0.0000000e+00
0.0000000e+00
0.0000000e+00
0.0000000e+00
0.0000000e+00
0.0000000e+00
0.0000000e+00
0.0000000e+00
0.0000000e+00
0.0000000e+00
0.0000000e+00
0.0000000e+00
0.0000000e+00
0.0000000e+00
0.0000000e+00
0.0000000e+00
0.0000000e+00
0.0000000e+00
0.0000000e+00
0.0000000e+00
0.0000000e+00
0.0000000e+00
0.0000000e+00
0.0000000e+00
0.0000000e+00
0.0000000e+00
0.0000000e+00
0.0000000e+00
0.0000000e+00
0.0000000e+00
0.0000000e+00
0.0000000e+00
0.0000000e+00
0.0000000e+00
0.0000000e+00
0.0000000e+00
0.0000000e+00
0.0000000e+00
0.0000000e+00
0.0000000e+00
0.0000000e+00
0.0000000e+00
0.0000000e+00
0.0000000e+00
0.0000000e+00
0.0000000e+00
0.0000000e+00
0.0000000e+00
0.0000000e+00
0.0000000e+00
0.0000000e+00
0.0000000e+00
0.0000000e+00
0.0000000e+00
0.0000000e+00
0.0000000e+00
0.0000000e+00
0.0000000e+00
0.0000000e+00
0.0000000e+00
0.0000000e+00
0.0000000e+00
0.0000000e+00
0.0000000e+00
0.0000000e+00
0.0000000e+00
0.0000000e+00
0.0000000e+00
0.0000000e+00
0.0000000e+00
0.0000000e+00
0.0000000e+00
0.0000000e+00
0.0000000e+00
0.0000000e+00
0.0000000e+00
0.0000000e+00
0.0000000e+00
0.0000000e+00
0.0000000e+00
0.0000000e+00
0.0000000e+00
0.0000000e+00
0.0000000e+00
0.0000000e+00
0.0000000e+00
0.0000000e+00
0.0000000e+00
0.0000000e+00
0.0000000e+00
0.0000000e+00
0.0000000e+00
0.0000000e+00
0.0000000e+00
0.0000000e+00
0.0000000e+00
0.0000000e+00
0.0000000e+00
0.0000000e+00
0.0000000e+00
0.0000000e+00
0.0000000e+00
0.0000000e+00
0.0000000e+00
0.0000000e+00
0.0000000e+00
0.0000000e+00
0.0000000e+00
0.0000000e+00
0.0000000e+00
0.0000000e+00
0.0000000e+00
0.0000000e+00
0.0000000e+00
0.0000000e+00
0.0000000e+00
0.0000000e+00
0.0000000e+00
0.0000000e+00
0.0000000e+00
0.0000000e+00
0.0000000e+00
0.0000000e+00
0.0000000e+00
0.0000000e+00
0.0000000e+00
0.0000000e+00
0.0000000e+00
0.0000000e+00
0.0000000e+00
0.0000000e+00
0.0000000e+00
0.0000000e+00
0.0000000e+00
0.0000000e+00
0.0000000e+00
0.0000000e+00
0.0000000e+00
0.0000000e+00
0.0000000e+00
0.0000000e+00
0.0000000e+00
0.0000000e+00
0.0000000e+00
0.0000000e+00
0.0000000e+00
0.0000000e+00
0.0000000e+00
0.0000000e+00
0.0000000e+00
0.0000000e+00
0.0000000e+00
0.0000000e+00
0.0000000e+00
0.0000000e+00
0.0000000e+00
0.0000000e+00
0.0000000e+00
0.0000000e+00
0.0000000e+00
0.0000000e+00
0.0000000e+00
0.0000000e+00
0.0000000e+00
0.0000000e+00
0.0000000e+00
0.0000000e+00
0.0000000e+00
0.0000000e+00
0.0000000e+00
0.0000000e+00
0.0000000e+00
0.0000000e+00
0.0000000e+00
0.0000000e+00
0.0000000e+00
0.0000000e+00
0.0000000e+00
0.0000000e+00
0.0000000e+00
0.0000000e+00
0.0000000e+00
0.0000000e+00
0.0000000e+00
0.0000000e+00
0.0000000e+00
0.0000000e+00
0.0000000e+00
0.0000000e+00
0.0000000e+00
0.0000000e+00
0.0000000e+00
0.0000000e+00
0.0000000e+00
0.0000000e+00
0.0000000e+00
0.0000000e+00
0.0000000e+00
0.0000000e+00
0.0000000e+00
0.0000000e+00
0.0000000e+00
0.0000000e+00
0.0000000e+00
0.0000000e+00
0.0000000e+00
0.0000000e+00
0.0000000e+00
0.0000000e+00
0.0000000e+00
0.0000000e+00
0.0000000e+00
0.0000000e+00
0.0000000e+00
0.0000000e+00
0.0000000e+00
0.0000000e+00
0.0000000e+00
0.0000000e+00
0.0000000e+00
0.0000000e+00
0.0000000e+00
0.0000000e+00
0.0000000e+00
0.0000000e+00
0.0000000e+00
0.0000000e+00
0.0000000e+00
0.0000000e+00
0.0000000e+00
0.0000000e+00
0.0000000e+00
0.0000000e+00
0.0000000e+00
0.0000000e+00
0.0000000e+00
0.0000000e+00
0.0000000e+00
0.0000000e+00
0.0000000e+00
0.0000000e+00
0.0000000e+00
0.0000000e+00
0.0000000e+00
0.0000000e+00
0.0000000e+00
0.0000000e+00
0.0000000e+00
0.0000000e+00
0.0000000e+00
0.0000000e+00
0.0000000e+00
0.0000000e+00
0.0000000e+00
0.0000000e+00
0.0000000e+00
0.0000000e+00
0.0000000e+00
0.0000000e+00
0.0000000e+00
0.0000000e+00
0.0000000e+00
0.0000000e+00
0.0000000e+00
0.0000000e+00
0.0000000e+00
0.0000000e+00
0.0000000e+00
0.0000000e+00
0.0000000e+00
0.0000000e+00
0.0000000e+00
0.0000000e+00
0.0000000e+00
0.0000000e+00
0.0000000e+00
0.0000000e+00
0.0000000e+00
0.0000000e+00
0.0000000e+00
0.0000000e+00
0.0000000e+00
0.0000000e+00
0.0000000e+00
0.0000000e+00
0.0000000e+00
0.0000000e+00
0.0000000e+00
0.0000000e+00
0.0000000e+00
0.0000000e+00
0.0000000e+00
0.0000000e+00
0.0000000e+00
0.0000000e+00
0.0000000e+00
0.0000000e+00
0.0000000e+00
0.0000000e+00
0.0000000e+00
0.0000000e+00
0.0000000e+00
0.0000000e+00
0.0000000e+00
0.0000000e+00
0.0000000e+00
0.0000000e+00
0.0000000e+00
0.0000000e+00
0.0000000e+00
0.0000000e+00
0.0000000e+00
0.0000000e+00
0.0000000e+00
0.0000000e+00
0.0000000e+00
0.0000000e+00
0.0000000e+00
0.0000000e+00
0.0000000e+00
0.0000000e+00
0.0000000e+00
0.0000000e+00
0.0000000e+00
0.0000000e+00
0.0000000e+00
0.0000000e+00
0.0000000e+00
0.0000000e+00
0.0000000e+00
0.0000000e+00
0.0000000e+00
0.0000000e+00
0.0000000e+00
0.0000000e+00
0.0000000e+00
0.0000000e+00
0.0000000e+00
0.0000000e+00
0.0000000e+00
0.0000000e+00
0.0000000e+00
0.0000000e+00
0.0000000e+00
0.0000000e+00
0.0000000e+00
0.0000000e+00
0.0000000e+00
0.0000000e+00
0.0000000e+00
0.0000000e+00
0.0000000e+00
0.0000000e+00
0.0000000e+00
0.0000000e+00
0.0000000e+00
0.0000000e+00
0.0000000e+00
0.0000000e+00
0.0000000e+00
0.0000000e+00
0.0000000e+00
0.0000000e+00
0.0000000e+00
0.0000000e+00
0.0000000e+00
0.0000000e+00
0.0000000e+00
0.0000000e+00
0.0000000e+00
0.0000000e+00
0.0000000e+00
0.0000000e+00
0.0000000e+00
0.0000000e+00
0.0000000e+00
0.0000000e+00
0.0000000e+00
0.0000000e+00
0.0000000e+00
0.0000000e+00
0.0000000e+00
0.0000000e+00
0.0000000e+00
0.0000000e+00
0.0000000e+00
0.0000000e+00
0.0000000e+00
0.0000000e+00
0.0000000e+00
0.0000000e+00
0.0000000e+00
0.0000000e+00
0.0000000e+00
0.0000000e+00
0.0000000e+00
0.0000000e+00
0.0000000e+00
0.0000000e+00
0.0000000e+00
0.0000000e+00
0.0000000e+00
0.0000000e+00
0.0000000e+00
0.0000000e+00
0.0000000e+00
0.0000000e+00
0.0000000e+00
0.0000000e+00
0.0000000e+00
0.0000000e+00
0.0000000e+00
0.0000000e+00
0.0000000e+00
0.0000000e+00
0.0000000e+00
0.0000000e+00
0.0000000e+00
0.0000000e+00
0.0000000e+00
0.0000000e+00
0.0000000e+00
0.0000000e+00
0.0000000e+00
0.0000000e+00
0.0000000e+00
0.0000000e+00
0.0000000e+00
0.0000000e+00
0.0000000e+00
0.0000000e+00
0.0000000e+00
0.0000000e+00
0.0000000e+00
0.0000000e+00
0.0000000e+00
0.0000000e+00
0.0000000e+00
0.0000000e+00
0.0000000e+00
0.0000000e+00
0.0000000e+00
0.0000000e+00
0.0000000e+00
0.0000000e+00
0.0000000e+00
0.0000000e+00
0.0000000e+00
0.0000000e+00
0.0000000e+00
0.0000000e+00
0.0000000e+00
0.0000000e+00
0.0000000e+00
0.0000000e+00
0.0000000e+00
0.0000000e+00
0.0000000e+00
0.0000000e+00
0.0000000e+00
0.0000000e+00
0.0000000e+00
0.0000000e+00
0.0000000e+00
0.0000000e+00
0.0000000e+00
0.0000000e+00
0.0000000e+00
0.0000000e+00
0.0000000e+00
0.0000000e+00
0.0000000e+00
0.0000000e+00
0.0000000e+00
0.0000000e+00
0.0000000e+00
0.0000000e+00
0.0000000e+00
0.0000000e+00
0.0000000e+00
0.0000000e+00
0.0000000e+00
0.0000000e+00
0.0000000e+00
0.0000000e+00
0.0000000e+00
0.0000000e+00
0.0000000e+00
0.0000000e+00
0.0000000e+00
0.0000000e+00
0.0000000e+00
0.0000000e+00
0.0000000e+00
0.0000000e+00
0.0000000e+00
0.0000000e+00
0.0000000e+00
0.0000000e+00
0.0000000e+00
0.0000000e+00
0.0000000e+00
0.0000000e+00
0.0000000e+00
0.0000000e+00
0.0000000e+00
0.0000000e+00
0.0000000e+00
0.0000000e+00
0.0000000e+00
0.0000000e+00
0.0000000e+00
0.0000000e+00
0.0000000e+00
0.0000000e+00
0.0000000e+00
0.0000000e+00
0.0000000e+00
0.0000000e+00
0.0000000e+00
0.0000000e+00
0.0000000e+00
0.0000000e+00
0.0000000e+00
0.0000000e+00
0.0000000e+00
0.0000000e+00
0.0000000e+00
0.0000000e+00
0.0000000e+00
0.0000000e+00
0.0000000e+00
0.0000000e+00
0.0000000e+00
0.0000000e+00
0.0000000e+00
0.0000000e+00
0.0000000e+00
0.0000000e+00
0.0000000e+00
0.0000000e+00
0.0000000e+00
0.0000000e+00
0.0000000e+00
0.0000000e+00
0.0000000e+00
0.0000000e+00
0.0000000e+00
0.0000000e+00
0.0000000e+00
0.0000000e+00
0.0000000e+00
0.0000000e+00
0.0000000e+00
0.0000000e+00
0.0000000e+00
0.0000000e+00
0.0000000e+00
0.0000000e+00
0.0000000e+00
0.0000000e+00
0.0000000e+00
0.0000000e+00
0.0000000e+00
0.0000000e+00
0.0000000e+00
0.0000000e+00
0.0000000e+00
0.0000000e+00
0.0000000e+00
0.0000000e+00
0.0000000e+00
0.0000000e+00
0.0000000e+00
0.0000000e+00
0.0000000e+00
0.0000000e+00
0.0000000e+00
0.0000000e+00
0.0000000e+00
0.0000000e+00
0.0000000e+00
0.0000000e+00
0.0000000e+00
0.0000000e+00
0.0000000e+00
0.0000000e+00
0.0000000e+00
0.0000000e+00
0.0000000e+00
0.0000000e+00
0.0000000e+00
0.0000000e+00
0.0000000e+00
0.0000000e+00
0.0000000e+00
0.0000000e+00
0.0000000e+00
0.0000000e+00
0.0000000e+00
0.0000000e+00
0.0000000e+00
0.0000000e+00
0.0000000e+00
0.0000000e+00
0.0000000e+00
0.0000000e+00
0.0000000e+00
0.0000000e+00
0.0000000e+00
0.0000000e+00
0.0000000e+00
0.0000000e+00
0.0000000e+00
0.0000000e+00
0.0000000e+00
0.0000000e+00
0.0000000e+00
0.0000000e+00
0.0000000e+00
0.0000000e+00
0.0000000e+00
0.0000000e+00
0.0000000e+00
0.0000000e+00
0.0000000e+00
0.0000000e+00
0.0000000e+00
0.0000000e+00
0.0000000e+00
0.0000000e+00
0.0000000e+00
0.0000000e+00
0.0000000e+00
0.0000000e+00
0.0000000e+00
0.0000000e+00
0.0000000e+00
0.0000000e+00
0.0000000e+00
0.0000000e+00
0.0000000e+00
0.0000000e+00
0.0000000e+00
0.0000000e+00
0.0000000e+00
0.0000000e+00
0.0000000e+00
0.0000000e+00
0.0000000e+00
0.0000000e+00
0.0000000e+00
0.0000000e+00
0.0000000e+00
0.0000000e+00
0.0000000e+00
0.0000000e+00
0.0000000e+00
0.0000000e+00
0.0000000e+00
0.0000000e+00
0.0000000e+00
0.0000000e+00
0.0000000e+00
0.0000000e+00
0.0000000e+00
0.0000000e+00
0.0000000e+00
0.0000000e+00
0.0000000e+00
0.0000000e+00
0.0000000e+00
0.0000000e+00
0.0000000e+00
0.0000000e+00
0.0000000e+00
0.0000000e+00
0.0000000e+00
0.0000000e+00
0.0000000e+00
0.0000000e+00
0.0000000e+00
0.0000000e+00
0.0000000e+00
0.0000000e+00
0.0000000e+00
0.0000000e+00
0.0000000e+00
0.0000000e+00
0.0000000e+00
0.0000000e+00
0.0000000e+00
0.0000000e+00
0.0000000e+00
0.0000000e+00
0.0000000e+00
0.0000000e+00
0.0000000e+00
0.0000000e+00
0.0000000e+00
0.0000000e+00
0.0000000e+00
0.0000000e+00
0.0000000e+00
0.0000000e+00
0.0000000e+00
0.0000000e+00
0.0000000e+00
0.0000000e+00
0.0000000e+00
0.0000000e+00
0.0000000e+00
0.0000000e+00
0.0000000e+00
0.0000000e+00
0.0000000e+00
0.0000000e+00
0.0000000e+00
0.0000000e+00
0.0000000e+00
0.0000000e+00
0.0000000e+00
0.0000000e+00
0.0000000e+00
0.0000000e+00
0.0000000e+00
0.0000000e+00
0.0000000e+00
0.0000000e+00
0.0000000e+00
0.0000000e+00
0.0000000e+00
0.0000000e+00
0.0000000e+00
0.0000000e+00
0.0000000e+00
0.0000000e+00
0.0000000e+00
0.0000000e+00
0.0000000e+00
0.0000000e+00
0.0000000e+00
0.0000000e+00
0.0000000e+00
0.0000000e+00
0.0000000e+00
0.0000000e+00
0.0000000e+00
0.0000000e+00
0.0000000e+00
0.0000000e+00
0.0000000e+00
0.0000000e+00
0.0000000e+00
0.0000000e+00
0.0000000e+00
0.0000000e+00
0.0000000e+00
0.0000000e+00
0.0000000e+00
0.0000000e+00
0.0000000e+00
0.0000000e+00
0.0000000e+00
0.0000000e+00
0.0000000e+00
0.0000000e+00
0.0000000e+00
0.0000000e+00
0.0000000e+00
0.0000000e+00
0.0000000e+00
0.0000000e+00
0.0000000e+00
0.0000000e+00
0.0000000e+00
0.0000000e+00
0.0000000e+00
0.0000000e+00
0.0000000e+00
0.0000000e+00
0.0000000e+00
0.0000000e+00
0.0000000e+00
0.0000000e+00
0.0000000e+00
0.0000000e+00
0.0000000e+00
0.0000000e+00
0.0000000e+00
0.0000000e+00
0.0000000e+00
0.0000000e+00
0.0000000e+00
0.0000000e+00
0.0000000e+00
0.0000000e+00
0.0000000e+00
0.0000000e+00
0.0000000e+00
0.0000000e+00
0.0000000e+00
0.0000000e+00
0.0000000e+00
0.0000000e+00
0.0000000e+00
0.0000000e+00
0.0000000e+00
0.0000000e+00
0.0000000e+00
0.0000000e+00
0.0000000e+00
0.0000000e+00
0.0000000e+00
0.0000000e+00
0.0000000e+00
0.0000000e+00
0.0000000e+00
0.0000000e+00
0.0000000e+00
0.0000000e+00
0.0000000e+00
0.0000000e+00
0.0000000e+00
0.0000000e+00
0.0000000e+00
0.0000000e+00
0.0000000e+00
0.0000000e+00
0.0000000e+00
0.0000000e+00
0.0000000e+00
0.0000000e+00
0.0000000e+00
0.0000000e+00
0.0000000e+00
0.0000000e+00
0.0000000e+00
0.0000000e+00
0.0000000e+00
0.0000000e+00
0.0000000e+00
0.0000000e+00
0.0000000e+00
0.0000000e+00
0.0000000e+00
0.0000000e+00
0.0000000e+00
0.0000000e+00
0.0000000e+00
0.0000000e+00
0.0000000e+00
0.0000000e+00
0.0000000e+00
0.0000000e+00
0.0000000e+00
0.0000000e+00
0.0000000e+00
0.0000000e+00
0.0000000e+00
0.0000000e+00
0.0000000e+00
0.0000000e+00
0.0000000e+00
0.0000000e+00
0.0000000e+00
0.0000000e+00
0.0000000e+00
0.0000000e+00
0.0000000e+00
0.0000000e+00
0.0000000e+00
0.0000000e+00
0.0000000e+00
0.0000000e+00
0.0000000e+00
0.0000000e+00
0.0000000e+00
0.0000000e+00
0.0000000e+00
0.0000000e+00
0.0000000e+00
0.0000000e+00
0.0000000e+00
0.0000000e+00
0.0000000e+00
0.0000000e+00
0.0000000e+00
0.0000000e+00
0.0000000e+00
0.0000000e+00
0.0000000e+00
0.0000000e+00
0.0000000e+00
0.0000000e+00
0.0000000e+00
0.0000000e+00
0.0000000e+00
0.0000000e+00
0.0000000e+00
0.0000000e+00
0.0000000e+00
0.0000000e+00
0.0000000e+00
0.0000000e+00
0.0000000e+00
0.0000000e+00
0.0000000e+00
0.0000000e+00
0.0000000e+00
0.0000000e+00
0.0000000e+00
0.0000000e+00
0.0000000e+00
0.0000000e+00
0.0000000e+00
0.0000000e+00
0.0000000e+00
0.0000000e+00
0.0000000e+00
0.0000000e+00
0.0000000e+00
0.0000000e+00
0.0000000e+00
0.0000000e+00
0.0000000e+00
0.0000000e+00
0.0000000e+00
0.0000000e+00
0.0000000e+00
0.0000000e+00
0.0000000e+00
0.0000000e+00
0.0000000e+00
0.0000000e+00
0.0000000e+00
0.0000000e+00
0.0000000e+00
0.0000000e+00
0.0000000e+00
0.0000000e+00
0.0000000e+00
0.0000000e+00
0.0000000e+00
0.0000000e+00
0.0000000e+00
0.0000000e+00
0.0000000e+00
0.0000000e+00
0.0000000e+00
0.0000000e+00
0.0000000e+00
0.0000000e+00
0.0000000e+00
0.0000000e+00
0.0000000e+00
0.0000000e+00
0.0000000e+00
0.0000000e+00
0.0000000e+00
0.0000000e+00
0.0000000e+00
0.0000000e+00
0.0000000e+00
0.0000000e+00
0.0000000e+00
0.0000000e+00
0.0000000e+00
0.0000000e+00
0.0000000e+00
0.0000000e+00
0.0000000e+00
0.0000000e+00
0.0000000e+00
0.0000000e+00
0.0000000e+00
0.0000000e+00
0.0000000e+00
0.0000000e+00
0.0000000e+00
0.0000000e+00
0.0000000e+00
0.0000000e+00
0.0000000e+00
0.0000000e+00
0.0000000e+00
0.0000000e+00
0.0000000e+00
0.0000000e+00
0.0000000e+00
0.0000000e+00
0.0000000e+00
0.0000000e+00
0.0000000e+00
0.0000000e+00
0.0000000e+00
0.0000000e+00
0.0000000e+00
0.0000000e+00
0.0000000e+00
0.0000000e+00
0.0000000e+00
0.0000000e+00
0.0000000e+00
0.0000000e+00
0.0000000e+00
0.0000000e+00
0.0000000e+00
0.0000000e+00
0.0000000e+00
0.0000000e+00
0.0000000e+00
0.0000000e+00
0.0000000e+00
0.0000000e+00
0.0000000e+00
0.0000000e+00
0.0000000e+00
0.0000000e+00
0.0000000e+00
0.0000000e+00
0.0000000e+00
0.0000000e+00
0.0000000e+00
0.0000000e+00
0.0000000e+00
0.0000000e+00
0.0000000e+00
0.0000000e+00
0.0000000e+00
0.0000000e+00
0.0000000e+00
0.0000000e+00
0.0000000e+00
0.0000000e+00
0.0000000e+00
0.0000000e+00
0.0000000e+00
0.0000000e+00
0.0000000e+00
0.0000000e+00
0.0000000e+00
0.0000000e+00
0.0000000e+00
0.0000000e+00
0.0000000e+00
0.0000000e+00
0.0000000e+00
0.0000000e+00
0.0000000e+00
0.0000000e+00
0.0000000e+00
0.0000000e+00
0.0000000e+00
0.0000000e+00
0.0000000e+00
0.0000000e+00
0.0000000e+00
0.0000000e+00
0.0000000e+00
0.0000000e+00
0.0000000e+00
0.0000000e+00
0.0000000e+00
0.0000000e+00
0.0000000e+00
0.0000000e+00
0.0000000e+00
0.0000000e+00
0.0000000e+00
0.0000000e+00
0.0000000e+00
0.0000000e+00
0.0000000e+00
0.0000000e+00
0.0000000e+00
0.0000000e+00
0.0000000e+00
0.0000000e+00
0.0000000e+00
0.0000000e+00
0.0000000e+00
0.0000000e+00
0.0000000e+00
0.0000000e+00
0.0000000e+00
0.0000000e+00
0.0000000e+00
0.0000000e+00
0.0000000e+00
0.0000000e+00
0.0000000e+00
0.0000000e+00
0.0000000e+00
0.0000000e+00
0.0000000e+00
0.0000000e+00
0.0000000e+00
0.0000000e+00
0.0000000e+00
0.0000000e+00
0.0000000e+00
0.0000000e+00
0.0000000e+00
0.0000000e+00
0.0000000e+00
0.0000000e+00
0.0000000e+00
0.0000000e+00
0.0000000e+00
0.0000000e+00
0.0000000e+00
0.0000000e+00
0.0000000e+00
0.0000000e+00
0.0000000e+00
0.0000000e+00
0.0000000e+00
0.0000000e+00
0.0000000e+00
0.0000000e+00
0.0000000e+00
0.0000000e+00
0.0000000e+00
0.0000000e+00
0.0000000e+00
0.0000000e+00
0.0000000e+00
0.0000000e+00
0.0000000e+00
0.0000000e+00
0.0000000e+00
0.0000000e+00
0.0000000e+00
0.0000000e+00
0.0000000e+00
0.0000000e+00
0.0000000e+00
0.0000000e+00
0.0000000e+00
0.0000000e+00
0.0000000e+00
0.0000000e+00
0.0000000e+00
0.0000000e+00
0.0000000e+00
0.0000000e+00
0.0000000e+00
0.0000000e+00
0.0000000e+00
0.0000000e+00
0.0000000e+00
0.0000000e+00
0.0000000e+00
0.0000000e+00
0.0000000e+00
0.0000000e+00
0.0000000e+00
0.0000000e+00
0.0000000e+00
0.0000000e+00
0.0000000e+00
0.0000000e+00
0.0000000e+00
0.0000000e+00
0.0000000e+00
0.0000000e+00
0.0000000e+00
0.0000000e+00
0.0000000e+00
0.0000000e+00
0.0000000e+00
0.0000000e+00
0.0000000e+00
0.0000000e+00
0.0000000e+00
0.0000000e+00
0.0000000e+00
0.0000000e+00
0.0000000e+00
0.0000000e+00
0.0000000e+00
0.0000000e+00
0.0000000e+00
0.0000000e+00
0.0000000e+00
0.0000000e+00
0.0000000e+00
0.0000000e+00
0.0000000e+00
0.0000000e+00
0.0000000e+00
0.0000000e+00
0.0000000e+00
0.0000000e+00
0.0000000e+00
0.0000000e+00
0.0000000e+00
0.0000000e+00
0.0000000e+00
0.0000000e+00
0.0000000e+00
0.0000000e+00
0.0000000e+00
0.0000000e+00
0.0000000e+00
0.0000000e+00
0.0000000e+00
0.0000000e+00
0.0000000e+00
0.0000000e+00
0.0000000e+00
0.0000000e+00
0.0000000e+00
0.0000000e+00
0.0000000e+00
0.0000000e+00
0.0000000e+00
0.0000000e+00
0.0000000e+00
0.0000000e+00
0.0000000e+00
0.0000000e+00
0.0000000e+00
0.0000000e+00
0.0000000e+00
0.0000000e+00
0.0000000e+00
0.0000000e+00
0.0000000e+00
0.0000000e+00
0.0000000e+00
0.0000000e+00
0.0000000e+00
0.0000000e+00
0.0000000e+00
0.0000000e+00
0.0000000e+00
0.0000000e+00
0.0000000e+00
0.0000000e+00
0.0000000e+00
0.0000000e+00
0.0000000e+00
0.0000000e+00
0.0000000e+00
0.0000000e+00
0.0000000e+00
0.0000000e+00
0.0000000e+00
0.0000000e+00
0.0000000e+00
0.0000000e+00
0.0000000e+00
0.0000000e+00
0.0000000e+00
0.0000000e+00
0.0000000e+00
0.0000000e+00
0.0000000e+00
0.0000000e+00
0.0000000e+00
0.0000000e+00
0.0000000e+00
0.0000000e+00
0.0000000e+00
0.0000000e+00
0.0000000e+00
0.0000000e+00
0.0000000e+00
0.0000000e+00
0.0000000e+00
0.0000000e+00
0.0000000e+00
0.0000000e+00
0.0000000e+00
0.0000000e+00
0.0000000e+00
0.0000000e+00
0.0000000e+00
0.0000000e+00
0.0000000e+00
0.0000000e+00
0.0000000e+00
0.0000000e+00
0.0000000e+00
0.0000000e+00
0.0000000e+00
0.0000000e+00
0.0000000e+00
0.0000000e+00
0.0000000e+00
0.0000000e+00
0.0000000e+00
0.0000000e+00
0.0000000e+00
0.0000000e+00
0.0000000e+00
0.0000000e+00
0.0000000e+00
0.0000000e+00
0.0000000e+00
0.0000000e+00
0.0000000e+00
0.0000000e+00
0.0000000e+00
0.0000000e+00
0.0000000e+00
0.0000000e+00
0.0000000e+00
0.0000000e+00
0.0000000e+00
0.0000000e+00
0.0000000e+00
0.0000000e+00
0.0000000e+00
0.0000000e+00
0.0000000e+00
0.0000000e+00
0.0000000e+00
0.0000000e+00
0.0000000e+00
0.0000000e+00
0.0000000e+00
0.0000000e+00
0.0000000e+00
0.0000000e+00
0.0000000e+00
0.0000000e+00
0.0000000e+00
0.0000000e+00
0.0000000e+00
0.0000000e+00
0.0000000e+00
0.0000000e+00
0.0000000e+00
0.0000000e+00
0.0000000e+00
0.0000000e+00
0.0000000e+00
0.0000000e+00
0.0000000e+00
0.0000000e+00
0.0000000e+00
0.0000000e+00
0.0000000e+00
0.0000000e+00
0.0000000e+00
0.0000000e+00
0.0000000e+00
0.0000000e+00
0.0000000e+00
0.0000000e+00
0.0000000e+00
0.0000000e+00
0.0000000e+00
0.0000000e+00
0.0000000e+00
0.0000000e+00
0.0000000e+00
0.0000000e+00
0.0000000e+00
0.0000000e+00
0.0000000e+00
0.0000000e+00
0.0000000e+00
0.0000000e+00
0.0000000e+00
0.0000000e+00
0.0000000e+00
0.0000000e+00
0.0000000e+00
0.0000000e+00
0.0000000e+00
0.0000000e+00
0.0000000e+00
0.0000000e+00
0.0000000e+00
0.0000000e+00
0.0000000e+00
0.0000000e+00
0.0000000e+00
0.0000000e+00
0.0000000e+00
0.0000000e+00
0.0000000e+00
0.0000000e+00
0.0000000e+00
0.0000000e+00
0.0000000e+00
0.0000000e+00
0.0000000e+00
0.0000000e+00
0.0000000e+00
0.0000000e+00
0.0000000e+00
0.0000000e+00
0.0000000e+00
0.0000000e+00
0.0000000e+00
0.0000000e+00
0.0000000e+00
0.0000000e+00
0.0000000e+00
0.0000000e+00
0.0000000e+00
0.0000000e+00
0.0000000e+00
0.0000000e+00
0.0000000e+00
0.0000000e+00
0.0000000e+00
0.0000000e+00
0.0000000e+00
0.0000000e+00
0.0000000e+00
0.0000000e+00
0.0000000e+00
0.0000000e+00
0.0000000e+00
0.0000000e+00
0.0000000e+00
0.0000000e+00
0.0000000e+00
0.0000000e+00
0.0000000e+00
0.0000000e+00
0.0000000e+00
0.0000000e+00
0.0000000e+00
0.0000000e+00
0.0000000e+00
0.0000000e+00
0.0000000e+00
0.0000000e+00
0.0000000e+00
0.0000000e+00
0.0000000e+00
0.0000000e+00
0.0000000e+00
0.0000000e+00
0.0000000e+00
0.0000000e+00
0.0000000e+00
0.0000000e+00
0.0000000e+00
0.0000000e+00
0.0000000e+00
0.0000000e+00
0.0000000e+00
0.0000000e+00
0.0000000e+00
0.0000000e+00
0.0000000e+00
0.0000000e+00
0.0000000e+00
0.0000000e+00
0.0000000e+00
0.0000000e+00
0.0000000e+00
0.0000000e+00
0.0000000e+00
0.0000000e+00
0.0000000e+00
0.0000000e+00
0.0000000e+00
0.0000000e+00
0.0000000e+00
0.0000000e+00
0.0000000e+00
0.0000000e+00
0.0000000e+00
0.0000000e+00
0.0000000e+00
0.0000000e+00
0.0000000e+00
0.0000000e+00
0.0000000e+00
0.0000000e+00
0.0000000e+00
0.0000000e+00
0.0000000e+00
0.0000000e+00
0.0000000e+00
0.0000000e+00
0.0000000e+00
0.0000000e+00
0.0000000e+00
0.0000000e+00
0.0000000e+00
0.0000000e+00
0.0000000e+00
0.0000000e+00
0.0000000e+00
0.0000000e+00
0.0000000e+00
0.0000000e+00
0.0000000e+00
0.0000000e+00
0.0000000e+00
0.0000000e+00
0.0000000e+00
0.0000000e+00
0.0000000e+00
0.0000000e+00
0.0000000e+00
0.0000000e+00
0.0000000e+00
0.0000000e+00
0.0000000e+00
0.0000000e+00
0.0000000e+00
0.0000000e+00
0.0000000e+00
0.0000000e+00
0.0000000e+00
0.0000000e+00
0.0000000e+00
0.0000000e+00
0.0000000e+00
0.0000000e+00
0.0000000e+00
0.0000000e+00
0.0000000e+00
0.0000000e+00
0.0000000e+00
0.0000000e+00
0.0000000e+00
0.0000000e+00
0.0000000e+00
0.0000000e+00
0.0000000e+00
0.0000000e+00
0.0000000e+00
0.0000000e+00
0.0000000e+00
0.0000000e+00
0.0000000e+00
0.0000000e+00
0.0000000e+00
0.0000000e+00
0.0000000e+00
0.0000000e+00
0.0000000e+00
0.0000000e+00
0.0000000e+00
0.0000000e+00
0.0000000e+00
0.0000000e+00
0.0000000e+00
0.0000000e+00
0.0000000e+00
0.0000000e+00
0.0000000e+00
0.0000000e+00
0.0000000e+00
0.0000000e+00
0.0000000e+00
0.0000000e+00
0.0000000e+00
0.0000000e+00
0.0000000e+00
0.0000000e+00
0.0000000e+00
0.0000000e+00
0.0000000e+00
0.0000000e+00
0.0000000e+00
0.0000000e+00
0.0000000e+00
0.0000000e+00
0.0000000e+00
0.0000000e+00
0.0000000e+00
0.0000000e+00
0.0000000e+00
0.0000000e+00
0.0000000e+00
0.0000000e+00
0.0000000e+00
0.0000000e+00
0.0000000e+00
0.0000000e+00
0.0000000e+00
0.0000000e+00
0.0000000e+00
0.0000000e+00
0.0000000e+00
0.0000000e+00
0.0000000e+00
0.0000000e+00
0.0000000e+00
0.0000000e+00
0.0000000e+00
0.0000000e+00
0.0000000e+00
0.0000000e+00
0.0000000e+00
0.0000000e+00
0.0000000e+00
0.0000000e+00
0.0000000e+00
0.0000000e+00
0.0000000e+00
0.0000000e+00
0.0000000e+00
0.0000000e+00
0.0000000e+00
0.0000000e+00
0.0000000e+00
0.0000000e+00
0.0000000e+00
0.0000000e+00
0.0000000e+00
0.0000000e+00
0.0000000e+00
0.0000000e+00
0.0000000e+00
0.0000000e+00
0.0000000e+00
0.0000000e+00
0.0000000e+00
0.0000000e+00
0.0000000e+00
0.0000000e+00
0.0000000e+00
0.0000000e+00
0.0000000e+00
0.0000000e+00
0.0000000e+00
0.0000000e+00
0.0000000e+00
0.0000000e+00
0.0000000e+00
0.0000000e+00
0.0000000e+00
0.0000000e+00
0.0000000e+00
0.0000000e+00
0.0000000e+00
0.0000000e+00
0.0000000e+00
0.0000000e+00
0.0000000e+00
0.0000000e+00
0.0000000e+00
0.0000000e+00
0.0000000e+00
0.0000000e+00
0.0000000e+00
0.0000000e+00
0.0000000e+00
0.0000000e+00
0.0000000e+00
0.0000000e+00
0.0000000e+00
0.0000000e+00
0.0000000e+00
0.0000000e+00
0.0000000e+00
0.0000000e+00
0.0000000e+00
0.0000000e+00
0.0000000e+00
0.0000000e+00
0.0000000e+00
0.0000000e+00
0.0000000e+00
0.0000000e+00
0.0000000e+00
0.0000000e+00
0.0000000e+00
0.0000000e+00
0.0000000e+00
0.0000000e+00
0.0000000e+00
0.0000000e+00
0.0000000e+00
0.0000000e+00
0.0000000e+00
0.0000000e+00
0.0000000e+00
0.0000000e+00
0.0000000e+00
0.0000000e+00
0.0000000e+00
0.0000000e+00
0.0000000e+00
0.0000000e+00
0.0000000e+00
0.0000000e+00
0.0000000e+00
0.0000000e+00
0.0000000e+00
0.0000000e+00
0.0000000e+00
0.0000000e+00
0.0000000e+00
0.0000000e+00
0.0000000e+00
0.0000000e+00
0.0000000e+00
0.0000000e+00
0.0000000e+00
0.0000000e+00
0.0000000e+00
0.0000000e+00
0.0000000e+00
0.0000000e+00
0.0000000e+00
0.0000000e+00
0.0000000e+00
0.0000000e+00
0.0000000e+00
0.0000000e+00
0.0000000e+00
0.0000000e+00
0.0000000e+00
0.0000000e+00
0.0000000e+00
0.0000000e+00
0.0000000e+00
0.0000000e+00
0.0000000e+00
0.0000000e+00
0.0000000e+00
0.0000000e+00
0.0000000e+00
0.0000000e+00
0.0000000e+00
0.0000000e+00
0.0000000e+00
0.0000000e+00
0.0000000e+00
0.0000000e+00
0.0000000e+00
0.0000000e+00
0.0000000e+00
0.0000000e+00
0.0000000e+00
0.0000000e+00
0.0000000e+00
0.0000000e+00
0.0000000e+00
0.0000000e+00
0.0000000e+00
0.0000000e+00
0.0000000e+00
0.0000000e+00
0.0000000e+00
0.0000000e+00
0.0000000e+00
0.0000000e+00
0.0000000e+00
0.0000000e+00
0.0000000e+00
0.0000000e+00
0.0000000e+00
0.0000000e+00
0.0000000e+00
0.0000000e+00
0.0000000e+00
0.0000000e+00
0.0000000e+00
0.0000000e+00
0.0000000e+00
0.0000000e+00
0.0000000e+00
0.0000000e+00
0.0000000e+00
0.0000000e+00
0.0000000e+00
0.0000000e+00
0.0000000e+00
0.0000000e+00
0.0000000e+00
0.0000000e+00
0.0000000e+00
0.0000000e+00
0.0000000e+00
0.0000000e+00
0.0000000e+00
0.0000000e+00
0.0000000e+00
0.0000000e+00
0.0000000e+00
0.0000000e+00
0.0000000e+00
0.0000000e+00
0.0000000e+00
0.0000000e+00
0.0000000e+00
0.0000000e+00
0.0000000e+00
0.0000000e+00
0.0000000e+00
0.0000000e+00
0.0000000e+00
0.0000000e+00
0.0000000e+00
0.0000000e+00
0.0000000e+00
0.0000000e+00
0.0000000e+00
0.0000000e+00
0.0000000e+00
0.0000000e+00
0.0000000e+00
0.0000000e+00
0.0000000e+00
0.0000000e+00
0.0000000e+00
0.0000000e+00
0.0000000e+00
0.0000000e+00
0.0000000e+00
0.0000000e+00
0.0000000e+00
0.0000000e+00
0.0000000e+00
0.0000000e+00
0.0000000e+00
0.0000000e+00
0.0000000e+00
0.0000000e+00
0.0000000e+00
0.0000000e+00
0.0000000e+00
0.0000000e+00
0.0000000e+00
0.0000000e+00
0.0000000e+00
0.0000000e+00
0.0000000e+00
0.0000000e+00
0.0000000e+00
0.0000000e+00
0.0000000e+00
0.0000000e+00
0.0000000e+00
0.0000000e+00
0.0000000e+00
0.0000000e+00
0.0000000e+00
0.0000000e+00
0.0000000e+00
0.0000000e+00
0.0000000e+00
0.0000000e+00
0.0000000e+00
0.0000000e+00
0.0000000e+00
0.0000000e+00
0.0000000e+00
0.0000000e+00
0.0000000e+00
0.0000000e+00
0.0000000e+00
0.0000000e+00
0.0000000e+00
0.0000000e+00
0.0000000e+00
0.0000000e+00
0.0000000e+00
0.0000000e+00
0.0000000e+00
0.0000000e+00
0.0000000e+00
0.0000000e+00
0.0000000e+00
0.0000000e+00
0.0000000e+00
0.0000000e+00
0.0000000e+00
0.0000000e+00
0.0000000e+00
0.0000000e+00
0.0000000e+00
0.0000000e+00
0.0000000e+00
0.0000000e+00
0.0000000e+00
0.0000000e+00
0.0000000e+00
0.0000000e+00
0.0000000e+00
0.0000000e+00
0.0000000e+00
0.0000000e+00
0.0000000e+00
0.0000000e+00
0.0000000e+00
0.0000000e+00
0.0000000e+00
0.0000000e+00
0.0000000e+00
0.0000000e+00
0.0000000e+00
0.0000000e+00
0.0000000e+00
0.0000000e+00
0.0000000e+00
0.0000000e+00
0.0000000e+00
0.0000000e+00
0.0000000e+00
0.0000000e+00
0.0000000e+00
0.0000000e+00
0.0000000e+00
0.0000000e+00
0.0000000e+00
0.0000000e+00
0.0000000e+00
0.0000000e+00
0.0000000e+00
0.0000000e+00
0.0000000e+00
0.0000000e+00
0.0000000e+00
0.0000000e+00
0.0000000e+00
0.0000000e+00
0.0000000e+00
0.0000000e+00
0.0000000e+00
0.0000000e+00
0.0000000e+00
0.0000000e+00
0.0000000e+00
0.0000000e+00
0.0000000e+00
0.0000000e+00
0.0000000e+00
0.0000000e+00
0.0000000e+00
0.0000000e+00
0.0000000e+00
0.0000000e+00
0.0000000e+00
0.0000000e+00
0.0000000e+00
0.0000000e+00
0.0000000e+00
0.0000000e+00
0.0000000e+00
0.0000000e+00
0.0000000e+00
0.0000000e+00
0.0000000e+00
0.0000000e+00
0.0000000e+00
0.0000000e+00
0.0000000e+00
0.0000000e+00
0.0000000e+00
0.0000000e+00
0.0000000e+00
0.0000000e+00
0.0000000e+00
0.0000000e+00
0.0000000e+00
0.0000000e+00
0.0000000e+00
0.0000000e+00
0.0000000e+00
0.0000000e+00
0.0000000e+00
0.0000000e+00
0.0000000e+00
0.0000000e+00
0.0000000e+00
0.0000000e+00
0.0000000e+00
0.0000000e+00
0.0000000e+00
0.0000000e+00
0.0000000e+00
0.0000000e+00
0.0000000e+00
0.0000000e+00
0.0000000e+00
0.0000000e+00
0.0000000e+00
0.0000000e+00
0.0000000e+00
0.0000000e+00
0.0000000e+00
0.0000000e+00
0.0000000e+00
0.0000000e+00
0.0000000e+00
0.0000000e+00
0.0000000e+00
0.0000000e+00
0.0000000e+00
0.0000000e+00
0.0000000e+00
0.0000000e+00
0.0000000e+00
0.0000000e+00
0.0000000e+00
0.0000000e+00
0.0000000e+00
0.0000000e+00
0.0000000e+00
0.0000000e+00
0.0000000e+00
0.0000000e+00
0.0000000e+00
0.0000000e+00
0.0000000e+00
0.0000000e+00
0.0000000e+00
0.0000000e+00
0.0000000e+00
0.0000000e+00
0.0000000e+00
0.0000000e+00
0.0000000e+00
0.0000000e+00
0.0000000e+00
0.0000000e+00
0.0000000e+00
0.0000000e+00
0.0000000e+00
0.0000000e+00
0.0000000e+00
0.0000000e+00
0.0000000e+00
0.0000000e+00
0.0000000e+00
0.0000000e+00
0.0000000e+00
0.0000000e+00
0.0000000e+00
0.0000000e+00
0.0000000e+00
0.0000000e+00
NODAL_H 1 2292  float
9.7740851e-03
9.7740851e-03
1.0207552e-02
1.2335205e-02
1.1742940e-02
1.1742940e-02
1.0187935e-02
1.0207552e-02
1.2065026e-02
9.3673011e-03
1.5423840e-02
9.2780925e-03
1.2504349e-02
9.7629754e-03
1.2521631e-02
1.0207552e-02
1.4152635e-02
1.1789538e-02
1.1633147e-02
9.3379468e-03
9.2780925e-03
1.4791935e-02
9.7629754e-03
1.4882966e-02
9.3379468e-03
1.0207552e-02
1.4791935e-02
1.0790856e-02
1.1097572e-02
1.0092680e-02
1.2316403e-02
1.1097572e-02
9.3673011e-03
1.0099440e-02
1.7777631e-02
1.0092680e-02
9.2925318e-03
1.4479356e-02
1.4147952e-02
9.8700589e-03
1.0787702e-02
1.0207552e-02
1.0099440e-02
9.8700589e-03
9.5670689e-03
8.4339501e-03
1.3855724e-02
9.7742472e-03
1.0092680e-02
9.3673011e-03
9.5670689e-03
9.2925318e-03
8.4339501e-03
1.6701754e-02
1.0769199e-02
1.9350467e-02
1.3671454e-02
1.0787702e-02
9.4618127e-03
1.0695675e-02
1.0207552e-02
1.8075058e-02
1.0092680e-02
1.0695675e-02
1.2939358e-02
9.3673011e-03
1.2939358e-02
1.7309843e-02
9.9737085e-03
1.0769199e-02
9.4618127e-03
1.1819630e-02
1.0418375e-02
1.4522459e-02
1.0418375e-02
9.3372455e-03
1.3261403e-02
1.0207552e-02
1.5636491e-02
1.6984645e-02
1.0092680e-02
9.3372455e-03
1.5300477e-02
1.1049374e-02
1.4100038e-02
9.3655484e-03
1.1683080e-02
1.0851831e-02
1.4100038e-02
1.7286910e-02
1.8029811e-02
9.8386612e-03
8.5089700e-03
1.0207552e-02
9.2085898e-03
9.7214170e-03
1.3441894e-02
1.2344549e-02
1.0092680e-02
1.6697615e-02
9.3673011e-03
1.1863544e-02
1.3179110e-02
1.3237269e-02
9.2085898e-03
1.5339634e-02
1.4391183e-02
8.5089700e-03
1.0570674e-02
9.4360076e-03
1.3441894e-02
9.7214170e-03
1.6742872e-02
1.5571759e-02
1.0115261e-02
1.3527958e-02
1.4823047e-02
1.4161268e-02
1.3179110e-02
1.0207552e-02
1.2007171e-02
9.3673011e-03
1.0092680e-02
1.0264417e-02
1.4399898e-02
1.4076312e-02
1.1863544e-02
1.5996499e-02
1.1692215e-02
1.3527958e-02
1.2007171e-02
1.7716549e-02
1.0211947e-02
1.1758833e-02
1.4667129e-02
1.0110783e-02
1.0264417e-02
1.1849143e-02
1.5834454e-02
1.1692215e-02
1.5954992e-02
1.0207552e-02
1.3741367e-02
1.0211583e-02
9.3673011e-03
1.1742940e-02
1.2529225e-02
1.0092680e-02
8.8441195e-03
1.5834454e-02
1.3496750e-02
1.1758833e-02
1.0620726e-02
1.3545467e-02
8.8441195e-03
1.1710417e-02
1.2975907e-02
1.0211947e-02
8.8268192e-03
1.2778377e-02
1.1777003e-02
1.0104946e-02
1.2222820e-02
8.8268192e-03
1.0207552e-02
1.1633147e-02
8.8299951e-03
9.3673011e-03
1.4544417e-02
9.7740851e-03
9.7740851e-03
1.0207552e-02
1.4892467e-02
9.1964900e-03
1.1357998e-02
1.1742940e-02
1.0187935e-02
1.0207552e-02
1.0719292e-02
1.0092680e-02
1.4534687e-02
9.3673011e-03
1.0321599e-02
9.4926953e-03
1.0620726e-02
1.0215639e-02
9.7629754e-03
1.0207552e-02
1.3545467e-02
8.6097466e-03
1.0719292e-02
1.5187077e-02
9.5699728e-03
1.8436873e-02
1.5639419e-02
9.1964900e-03
1.1633147e-02
9.3673011e-03
1.3363981e-02
1.0913812e-02
1.2222820e-02
9.7629754e-03
1.0207552e-02
1.0321599e-02
1.0104946e-02
1.0092680e-02
9.3673011e-03
1.5639419e-02
1.0207552e-02
1.2128529e-02
1.0045598e-02
1.3465380e-02
9.5699728e-03
9.3673011e-03
9.8386612e-03
1.0092680e-02
1.4961157e-02
1.1735431e-02
1.0625538e-02
1.0207552e-02
9.4926953e-03
1.0944297e-02
1.3134418e-02
1.0092680e-02
1.0092680e-02
8.6097466e-03
1.0214765e-02
1.2088620e-02
9.0602078e-03
9.8386612e-03
1.0136440e-02
1.0207552e-02
9.3673011e-03
1.0045598e-02
1.0092680e-02
1.0102818e-02
1.0207552e-02
1.2061380e-02
9.3673011e-03
8.9037735e-03
1.4910790e-02
1.1683080e-02
1.0179196e-02
1.5179740e-02
1.2753224e-02
1.3870178e-02
8.9037735e-03
1.1644894e-02
1.0207552e-02
1.0686057e-02
1.0092680e-02
1.0092680e-02
1.0115261e-02
1.3230339e-02
1.0210324e-02
1.0079630e-02
9.3673011e-03
1.0822434e-02
1.4382771e-02
1.1049374e-02
9.3673011e-03
2.0080583e-02
8.9109913e-03
1.0686057e-02
1.0179196e-02
1.0079630e-02
1.0726021e-02
1.3215225e-02
1.0207552e-02
1.0207552e-02
1.0098816e-02
1.2753224e-02
1.1644894e-02
1.0211947e-02
1.0092680e-02
9.3673011e-03
1.0264417e-02
1.2337958e-02
1.0110783e-02
1.0570674e-02
1.2855219e-02
1.0210324e-02
1.0726021e-02
1.0092680e-02
1.5076651e-02
1.0620726e-02
1.0207552e-02
9.3673011e-03
8.9109913e-03
1.0109355e-02
1.0092680e-02
1.0211947e-02
8.7635592e-03
1.0207552e-02
1.3465380e-02
1.2810925e-02
1.7590530e-02
1.0098816e-02
1.1813411e-02
1.0110783e-02
1.2892224e-02
1.0264417e-02
1.0620726e-02
1.4103351e-02
1.2833513e-02
1.0207552e-02
1.2369287e-02
9.3673011e-03
1.0212466e-02
1.4256854e-02
1.1719539e-02
1.2810925e-02
1.0092680e-02
1.0092680e-02
8.7635592e-03
9.3673011e-03
1.5791224e-02
1.0215639e-02
1.3125018e-02
1.2981609e-02
1.0207552e-02
1.2369287e-02
1.1813411e-02
1.0207552e-02
1.1633147e-02
8.5612945e-03
9.3673011e-03
1.5877377e-02
9.1363294e-03
1.2079781e-02
1.3103625e-02
1.0092680e-02
1.0211939e-02
1.3103625e-02
1.0214765e-02
9.2033762e-03
9.3673011e-03
1.1719539e-02
1.2033155e-02
1.3174041e-02
1.2500151e-02
1.0828322e-02
1.4018941e-02
1.0207552e-02
1.2079781e-02
1.0437377e-02
9.3673011e-03
1.0207552e-02
1.7051877e-02
8.5067386e-03
1.2500151e-02
8.8594221e-03
8.5612945e-03
8.5067386e-03
1.2061380e-02
9.6174460e-03
1.0210324e-02
1.0211490e-02
1.6566660e-02
1.4365291e-02
9.3673011e-03
1.1682135e-02
1.0092680e-02
1.3074697e-02
1.5877377e-02
1.2711026e-02
9.3673011e-03
1.5646864e-02
1.0207552e-02
8.5475743e-03
1.2745660e-02
1.0207552e-02
1.0098816e-02
9.1428189e-03
9.1875419e-03
1.5877377e-02
1.0092680e-02
1.0032034e-02
1.0210324e-02
8.5475743e-03
1.2711026e-02
1.1703504e-02
1.6824951e-02
9.3673011e-03
1.0211490e-02
1.0092680e-02
9.3673011e-03
1.2981609e-02
1.0207552e-02
1.1764120e-02
1.6942864e-02
1.1764120e-02
1.0207552e-02
1.3569045e-02
9.1428189e-03
1.1901208e-02
1.0269398e-02
1.7147154e-02
1.0098816e-02
8.1574451e-03
9.3082609e-03
9.4163418e-03
1.0212466e-02
9.3673011e-03
1.5438104e-02
9.3673011e-03
9.9073555e-03
1.0084322e-02
9.5864935e-03
1.0092680e-02
1.5728954e-02
9.2539173e-03
1.0207552e-02
7.9450533e-03
1.7484369e-02
9.2940470e-03
1.0102818e-02
1.8463900e-02
1.2077594e-02
1.1122456e-02
8.0140717e-03
1.3852853e-02
1.0092680e-02
1.3852853e-02
8.1574451e-03
1.0211939e-02
9.3673011e-03
9.3673011e-03
1.3569045e-02
1.2356551e-02
1.2356551e-02
1.0092680e-02
7.9450533e-03
1.1901208e-02
1.2652176e-02
1.0207552e-02
1.0280672e-02
9.0091536e-03
1.2745660e-02
1.1877195e-02
1.4557151e-02
1.2882316e-02
9.3160672e-03
1.1877195e-02
1.0104946e-02
1.0207552e-02
8.2986457e-03
1.5728954e-02
8.0140717e-03
8.7613212e-03
8.2325377e-03
9.3673011e-03
9.3673011e-03
1.5088253e-02
1.0211490e-02
1.0092680e-02
1.3539868e-02
1.1474775e-02
9.3044294e-03
1.0211490e-02
1.5088253e-02
1.0207552e-02
1.4557151e-02
8.7613212e-03
1.0104946e-02
1.8244376e-02
1.2765928e-02
9.0091536e-03
9.1428189e-03
1.0207552e-02
9.3673011e-03
9.3673011e-03
1.0092680e-02
9.9561177e-03
1.0211490e-02
1.7127816e-02
1.2737228e-02
1.0211490e-02
9.2174606e-03
1.0207552e-02
1.0168852e-02
1.3034285e-02
1.0110783e-02
1.6358439e-02
1.5162258e-02
1.1685762e-02
1.0389219e-02
1.7634887e-02
1.0092680e-02
9.1428189e-03
1.8208388e-02
1.0207552e-02
1.5654257e-02
1.2077594e-02
9.3673011e-03
1.1474775e-02
1.2702922e-02
9.3673011e-03
9.3082609e-03
1.4070116e-02
1.0115261e-02
1.0211939e-02
9.2539173e-03
1.6191494e-02
9.0945261e-03
1.8016264e-02
1.0207552e-02
1.0092680e-02
9.9326139e-03
9.9488022e-03
1.5179971e-02
9.1363294e-03
9.3673011e-03
9.9326139e-03
9.8386612e-03
1.0207552e-02
1.4476461e-02
1.3363981e-02
9.3673011e-03
1.3791202e-02
1.6084427e-02
1.2514862e-02
1.0092680e-02
1.0092680e-02
1.6399534e-02
9.0945261e-03
9.2539173e-03
1.3014790e-02
1.2702922e-02
1.2980544e-02
1.0320095e-02
1.6775483e-02
9.8386612e-03
1.0212466e-02
1.4800554e-02
9.2940470e-03
1.0092680e-02
9.3673011e-03
9.1363294e-03
1.6663451e-02
1.6399534e-02
1.5654257e-02
1.0207552e-02
9.1964900e-03
9.3673011e-03
1.4384733e-02
1.0092680e-02
9.6174460e-03
1.3704243e-02
1.3892290e-02
1.0656795e-02
1.2737228e-02
1.0009484e-02
9.1964900e-03
1.6494405e-02
1.0092680e-02
1.0211490e-02
1.0210324e-02
1.9620970e-02
1.0092680e-02
1.0337510e-02
1.1980998e-02
9.3673011e-03
9.6743964e-03
1.7288638e-02
8.2899528e-03
1.0110783e-02
1.2316403e-02
1.0207552e-02
1.5453059e-02
8.2899528e-03
1.5562437e-02
1.4750837e-02
1.4800554e-02
1.0207552e-02
1.5478712e-02
9.3673011e-03
1.5215500e-02
1.7183429e-02
1.0092680e-02
1.4170700e-02
1.0576238e-02
1.4316793e-02
1.2516859e-02
1.3215079e-02
9.3673011e-03
1.0210324e-02
1.0110783e-02
1.0211490e-02
1.8369822e-02
9.8903347e-03
9.2511084e-03
1.0207552e-02
1.6539339e-02
9.2511084e-03
1.4494839e-02
1.8002918e-02
9.8478245e-03
1.6475815e-02
1.2546585e-02
1.0207552e-02
1.2985209e-02
9.8540410e-03
1.2985209e-02
9.3673011e-03
1.0092680e-02
9.8903347e-03
1.2756417e-02
1.0972299e-02
9.3673011e-03
1.4555131e-02
1.0115261e-02
1.4170700e-02
1.2980544e-02
1.1633147e-02
1.0214765e-02
9.6743964e-03
1.3987795e-02
1.7286910e-02
1.5949579e-02
1.5562437e-02
1.0211939e-02
9.8478245e-03
1.2477968e-02
9.0945261e-03
1.0092680e-02
1.0207552e-02
9.8386612e-03
1.0207552e-02
1.3987795e-02
9.3673011e-03
1.4588891e-02
9.3673011e-03
9.7936671e-03
1.3255923e-02
9.7936671e-03
1.0694912e-02
9.8324642e-03
1.0085335e-02
1.0269029e-02
1.9888956e-02
8.4384354e-03
9.8639959e-03
1.5610644e-02
1.4341613e-02
1.3465361e-02
1.4574060e-02
1.0215639e-02
1.3087455e-02
9.4618136e-03
1.2997737e-02
1.1718476e-02
9.1884490e-03
1.1769579e-02
1.4707720e-02
1.3582644e-02
1.0092680e-02
8.4384354e-03
9.9802464e-03
1.4399898e-02
1.6111150e-02
9.3673011e-03
9.8540410e-03
1.0212466e-02
1.3658728e-02
9.9488022e-03
9.8639959e-03
1.0207552e-02
1.9684449e-02
1.0320095e-02
1.0972299e-02
9.3673011e-03
1.4116207e-02
1.0207552e-02
1.4418207e-02
1.0269029e-02
9.4618136e-03
1.4499673e-02
1.4154954e-02
1.6672747e-02
1.0269029e-02
1.7371351e-02
1.0211947e-02
1.0092680e-02
9.3673011e-03
9.7824130e-03
1.1683080e-02
1.2546585e-02
1.5183161e-02
1.7060589e-02
1.0271912e-02
1.6161518e-02
9.0945261e-03
1.2756417e-02
1.0099440e-02
1.7951695e-02
1.6990559e-02
1.0166711e-02
1.0207552e-02
1.6572708e-02
1.0168352e-02
1.0099440e-02
8.9037735e-03
1.0210324e-02
1.4016268e-02
1.4494839e-02
9.0375086e-03
1.1777003e-02
1.0333069e-02
1.3215362e-02
1.4617860e-02
9.8595265e-03
1.0092680e-02
1.3138055e-02
9.0375086e-03
1.4874110e-02
9.3279444e-03
8.4818630e-03
9.3673011e-03
1.0269029e-02
1.3770564e-02
1.3870175e-02
1.0211947e-02
1.6672747e-02
1.4574060e-02
9.7824130e-03
1.0207552e-02
9.4490210e-03
1.8753653e-02
1.0092680e-02
1.1769579e-02
1.0271912e-02
8.8753691e-03
1.3596402e-02
9.6201273e-03
1.0755634e-02
1.0207552e-02
9.6201273e-03
1.6031727e-02
1.4566991e-02
1.0092680e-02
8.5881203e-03
8.8619888e-03
1.8436039e-02
1.0210324e-02
1.5093916e-02
1.0269029e-02
1.0092680e-02
1.3418128e-02
1.0337510e-02
1.3376813e-02
1.3582644e-02
9.3673011e-03
8.9037735e-03
9.6743964e-03
1.5880048e-02
9.4308350e-03
1.0269029e-02
1.5249913e-02
8.4818630e-03
8.8753691e-03
8.9433221e-03
9.1024870e-03
1.8345509e-02
1.0207552e-02
1.0207552e-02
9.8510692e-03
1.2606456e-02
1.4341613e-02
1.4890291e-02
1.4154954e-02
9.3673011e-03
9.2556216e-03
1.3465361e-02
1.6504206e-02
1.4499673e-02
1.6212901e-02
1.0272820e-02
1.4949491e-02
1.3435267e-02
8.8619888e-03
1.5006314e-02
9.3673011e-03
1.6036686e-02
1.0168352e-02
9.0602078e-03
1.9278083e-02
9.6201273e-03
1.4395599e-02
1.2616198e-02
1.1851730e-02
9.3673011e-03
1.4866743e-02
1.0214765e-02
1.4742457e-02
9.8317033e-03
1.0207552e-02
1.3215362e-02
1.3596402e-02
9.4049973e-03
9.9128922e-03
1.9443907e-02
1.7448187e-02
1.5299204e-02
9.6348803e-03
9.4308350e-03
1.4418207e-02
1.1078618e-02
1.2867784e-02
1.5183161e-02
9.5699728e-03
1.7590314e-02
1.0269029e-02
1.0207552e-02
8.8269087e-03
1.3376813e-02
1.6161518e-02
1.0207552e-02
1.0662600e-02
1.3432254e-02
9.6201273e-03
1.2080817e-02
9.1353646e-03
9.8510692e-03
1.5580467e-02
1.2871594e-02
1.5135721e-02
1.5891375e-02
1.6354637e-02
9.3673011e-03
1.4237752e-02
9.5699728e-03
1.5489095e-02
1.5880048e-02
1.0215639e-02
1.0273635e-02
1.4949491e-02
1.1633147e-02
1.4259207e-02
9.6743964e-03
1.1883426e-02
1.1718476e-02
1.0207552e-02
9.1024870e-03
1.5655624e-02
1.1851730e-02
1.3435267e-02
1.0079154e-02
1.8939070e-02
8.8619888e-03
1.3288189e-02
9.2761731e-03
1.7608652e-02
1.1728951e-02
1.0207552e-02
1.6593389e-02
1.8763585e-02
1.0207552e-02
1.5799837e-02
9.3673011e-03
8.0965199e-03
1.0269029e-02
9.6201273e-03
1.5149479e-02
1.2080817e-02
9.2761731e-03
1.2241039e-02
1.3105275e-02
1.0211947e-02
8.8619888e-03
1.0269029e-02
1.0207552e-02
1.6671551e-02
1.5135721e-02
1.4566991e-02
1.0223113e-02
8.8269087e-03
1.5266024e-02
1.4385284e-02
8.5701896e-03
1.0207552e-02
1.4758892e-02
1.4259207e-02
9.6348803e-03
1.3541572e-02
8.8391863e-03
1.1683080e-02
1.0207552e-02
9.7617032e-03
9.3673011e-03
9.8317033e-03
9.7427508e-03
1.4013186e-02
1.2335205e-02
1.0207552e-02
8.9037735e-03
1.1648335e-02
1.5196661e-02
1.0635309e-02
1.0273766e-02
1.6029770e-02
1.6029770e-02
1.7000800e-02
1.0635309e-02
1.5009095e-02
1.0211947e-02
1.4611274e-02
1.4742457e-02
1.4046893e-02
1.0408489e-02
1.3988720e-02
1.1883426e-02
1.4002754e-02
1.5175052e-02
1.6860915e-02
1.1078618e-02
1.8242192e-02
9.6201273e-03
9.3673011e-03
1.3409868e-02
1.5879612e-02
9.5057907e-03
8.8218478e-03
1.7348221e-02
1.6458936e-02
9.2914496e-03
1.2754080e-02
8.5701896e-03
9.6201273e-03
1.2142318e-02
1.0098471e-02
1.0166711e-02
9.9367155e-03
1.8056823e-02
1.1968389e-02
1.0207552e-02
1.1323754e-02
1.5175860e-02
9.4331848e-03
8.0965199e-03
1.6212901e-02
8.1293462e-03
1.4769123e-02
8.2361242e-03
8.9037735e-03
1.4791025e-02
8.1293462e-03
9.0375086e-03
1.0269029e-02
9.0375086e-03
8.6829187e-03
1.8056823e-02
1.2543160e-02
1.3911013e-02
8.6829187e-03
1.7976236e-02
1.4874110e-02
1.4917552e-02
1.2612785e-02
1.2149958e-02
1.2819058e-02
1.9223493e-02
9.1447197e-03
5.9513226e-03
9.7617032e-03
1.1728951e-02
8.4973369e-03
1.3558092e-02
8.8753691e-03
1.3393700e-02
9.0031661e-03
9.2284251e-03
1.4128123e-02
1.7053625e-02
1.0207552e-02
1.4453892e-02
1.3644750e-02
1.5333022e-02
1.6593389e-02
1.5533695e-02
1.0098471e-02
1.0274083e-02
1.7454259e-02
1.7309843e-02
9.5047578e-03
8.8619888e-03
1.3105275e-02
8.4582586e-03
1.6003339e-02
1.3928694e-02
1.5962001e-02
1.5881674e-02
9.7427508e-03
1.1032064e-02
9.5269606e-03
9.6201273e-03
8.3127813e-03
1.0485227e-02
8.8218478e-03
5.9513226e-03
1.6276844e-02
1.1968389e-02
8.8753691e-03
1.0207552e-02
1.6662145e-02
1.4902961e-02
9.8510692e-03
1.4385284e-02
8.8269087e-03
1.6276844e-02
9.3673011e-03
9.5216287e-03
1.0269029e-02
1.6924510e-02
9.5216287e-03
9.3673011e-03
1.4148137e-02
1.2819058e-02
1.4540223e-02
1.4677178e-02
1.4013186e-02
1.5995691e-02
1.0408489e-02
1.3087455e-02
9.7401207e-03
1.5799837e-02
1.0269029e-02
9.7401207e-03
1.1566802e-02
9.7824130e-03
1.5431883e-02
1.5995691e-02
9.7841062e-03
1.1113163e-02
1.4452902e-02
9.2925318e-03
9.8317033e-03
1.0207552e-02
9.8634241e-03
1.0207552e-02
1.6079133e-02
1.2142318e-02
1.3928694e-02
1.4148137e-02
1.5555965e-02
9.7824130e-03
1.0023844e-02
1.3911013e-02
1.5175052e-02
8.3127813e-03
1.5552630e-02
1.0075653e-02
9.2925318e-03
1.1566802e-02
8.4457016e-03
1.4611274e-02
1.3300344e-02
1.0142114e-02
1.2149958e-02
9.8536750e-03
1.3279514e-02
9.8634241e-03
9.5047578e-03
1.0207552e-02
1.5065020e-02
1.4788493e-02
8.8619888e-03
9.1874208e-03
1.7706208e-02
1.0920977e-02
9.6201273e-03
1.5488296e-02
1.2543160e-02
9.9128922e-03
8.4582586e-03
1.7108133e-02
8.4457016e-03
1.2795945e-02
1.0271912e-02
1.0485227e-02
1.0269029e-02
8.7356325e-03
1.0269029e-02
8.8269087e-03
1.1113163e-02
9.0586180e-03
1.3719659e-02
1.5962001e-02
8.4384354e-03
1.0207552e-02
1.0207552e-02
9.3967319e-03
1.6621696e-02
1.1849143e-02
1.7348221e-02
9.8595265e-03
1.4677178e-02
1.0075653e-02
1.7300718e-02
1.3558092e-02
1.0213649e-02
1.5881674e-02
1.7387468e-02
1.5339278e-02
9.0170577e-03
1.0207552e-02
1.3458959e-02
1.4107769e-02
1.0207552e-02
1.0494062e-02
1.5802395e-02
1.4087404e-02
1.0236469e-02
1.3495488e-02
1.0271912e-02
1.0269029e-02
1.1600091e-02
1.5333022e-02
1.4107769e-02
9.7329943e-03
8.4384354e-03
1.7080093e-02
1.0207552e-02
1.0269029e-02
1.4902461e-02
1.3300344e-02
9.8263612e-03
1.5245213e-02
1.5339810e-02
1.5732337e-02
1.0207552e-02
1.5554945e-02
1.4488121e-02
1.4453892e-02
1.0207552e-02
1.3540577e-02
1.4488121e-02
1.4588891e-02
1.5488296e-02
1.2666917e-02
1.0207552e-02
9.8317033e-03
1.7083406e-02
1.6092755e-02
1.4960452e-02
1.0209934e-02
9.8536750e-03
9.3967319e-03
1.1223944e-02
1.4896087e-02
1.2653369e-02
9.1884490e-03
9.7807655e-03
1.2111033e-02
1.3909985e-02
1.0269029e-02
1.8056022e-02
1.5112819e-02
9.0170577e-03
9.7936671e-03
1.2690726e-02
1.0272820e-02
1.4468354e-02
1.5247802e-02
9.7329943e-03
1.7346280e-02
1.3724751e-02
1.4527831e-02
1.6637582e-02
9.6201273e-03
9.6201273e-03
1.7997939e-02
1.0207552e-02
1.2668408e-02
1.3792480e-02
9.6201273e-03
1.4575440e-02
1.3488268e-02
8.8619888e-03
9.6198404e-03
9.8263612e-03
1.7913831e-02
1.3430957e-02
1.1511520e-02
1.7338082e-02
1.4252358e-02
1.0085335e-02
1.5231556e-02
1.4698751e-02
8.6831972e-03
1.5552630e-02
1.2598258e-02
1.0926954e-02
1.2483365e-02
1.0269029e-02
1.1710207e-02
1.4146766e-02
1.2413827e-02
9.6201273e-03
1.0209934e-02
1.2795945e-02
1.2598258e-02
1.0269029e-02
1.2111033e-02
1.6472911e-02
1.0207552e-02
1.3101525e-02
6.8919649e-03
1.3138493e-02
9.7936671e-03
1.0273635e-02
1.3488268e-02
8.8619888e-03
1.6646923e-02
1.3552157e-02
9.6201273e-03
1.4310140e-02
1.5258676e-02
1.6280781e-02
7.5552319e-03
1.6953440e-02
8.6831972e-03
1.4896511e-02
1.5258676e-02
1.2653369e-02
1.2780248e-02
9.8624257e-03
1.6903568e-02
1.3675569e-02
1.6888877e-02
1.4146766e-02
1.4948948e-02
1.5651312e-02
1.0207552e-02
9.8324642e-03
1.4314737e-02
1.3939388e-02
1.0273635e-02
1.1969113e-02
1.4948948e-02
1.5386164e-02
1.0269029e-02
1.0159536e-02
1.7500915e-02
1.1503564e-02
6.8919649e-03
1.0481793e-02
9.6198404e-03
1.4707720e-02
1.5453592e-02
1.3552157e-02
1.0216398e-02
1.7722996e-02
1.2974455e-02
1.7590314e-02
1.4310140e-02
1.0141648e-02
1.3328765e-02
1.1400142e-02
9.8639959e-03
1.6092755e-02
1.5112819e-02
1.4960452e-02
1.0926954e-02
1.0273766e-02
1.1710207e-02
1.6398856e-02
8.8619888e-03
1.5302683e-02
1.6743906e-02
1.2413827e-02
1.5077365e-02
1.2329564e-02
1.7156024e-02
1.8475235e-02
1.0269029e-02
1.0269029e-02
1.6099526e-02
9.6201273e-03
9.8624257e-03
1.6017245e-02
1.8311704e-02
1.5381251e-02
8.8619888e-03
1.0269029e-02
9.6201273e-03
1.0207552e-02
1.0223113e-02
1.5678389e-02
7.3703155e-03
1.3210050e-02
1.1032064e-02
9.3495864e-03
9.7032944e-03
1.3210050e-02
1.2023122e-02
1.3792480e-02
1.2380532e-02
9.7913193e-03
1.3328765e-02
8.3738938e-03
1.3101525e-02
1.2062912e-02
1.4671546e-02
8.6618792e-03
1.0273635e-02
1.7200587e-02
1.4590045e-02
1.1034194e-02
9.8639959e-03
1.0207552e-02
9.6201273e-03
1.0274083e-02
1.3754229e-02
8.3738938e-03
1.4536595e-02
1.1969113e-02
9.6201273e-03
8.8441791e-03
1.3196651e-02
9.9802464e-03
1.3754229e-02
1.6720096e-02
1.3906254e-02
1.0136239e-02
1.0072225e-02
1.3279514e-02
1.4969476e-02
1.2974455e-02
1.0269029e-02
8.6618792e-03
1.4142403e-02
1.4111262e-02
1.3510676e-02
1.1584395e-02
1.0213649e-02
7.3703155e-03
9.7032944e-03
1.5271813e-02
1.5175860e-02
1.4991122e-02
1.4367532e-02
1.6014850e-02
8.2684876e-03
1.4142403e-02
9.7401207e-03
9.6201273e-03
1.0269029e-02
1.1034194e-02
1.7329935e-02
1.4106464e-02
9.7401207e-03
1.7590314e-02
9.8824855e-03
8.8619888e-03
1.2801428e-02
1.7122941e-02
1.2881057e-02
1.3906254e-02
1.1032064e-02
1.3187110e-02
1.5437228e-02
1.1032064e-02
9.0817688e-03
9.6201273e-03
1.0271912e-02
8.8759745e-03
1.3447615e-02
8.4457016e-03
1.3522082e-02
1.3187110e-02
9.8824855e-03
1.3719659e-02
1.2655376e-02
1.0207552e-02
1.9251201e-02
1.0269029e-02
1.2380532e-02
8.6276103e-03
1.4125102e-02
1.8065736e-02
1.5016147e-02
1.5077365e-02
8.4457016e-03
1.5481457e-02
1.0269029e-02
1.4544986e-02
1.0273766e-02
9.7841062e-03
1.3540696e-02
8.8759745e-03
1.0207552e-02
9.8073175e-03
1.6635463e-02
1.0023844e-02
1.0072303e-02
1.1295007e-02
1.1557678e-02
9.0786302e-03
1.0209934e-02
9.7329943e-03
8.8619888e-03
9.1874208e-03
9.6201273e-03
1.0902144e-02
1.8267406e-02
8.6276103e-03
1.0207552e-02
1.0017980e-02
1.3813397e-02
1.4106464e-02
1.0017980e-02
9.6201273e-03
1.1537422e-02
1.5175860e-02
1.0271912e-02
1.5589129e-02
9.6625192e-03
1.0269029e-02
1.0207552e-02
1.5248078e-02
1.0646873e-02
1.0487855e-02
1.5822250e-02
1.0269029e-02
1.1897089e-02
1.3151886e-02
1.4125102e-02
1.0207552e-02
9.8263612e-03
9.7329943e-03
9.6625192e-03
1.2590285e-02
1.5722526e-02
8.6926725e-03
1.2801428e-02
1.5522277e-02
1.2722513e-02
8.6926725e-03
1.0216398e-02
9.7807655e-03
1.2555624e-02
1.0902144e-02
8.8541862e-03
9.0786302e-03
1.3813397e-02
8.6621596e-03
1.6650759e-02
1.5118202e-02
1.3611385e-02
1.3396082e-02
1.0209934e-02
1.4666946e-02
1.2841270e-02
1.0207552e-02
1.3450553e-02
1.1882157e-02
9.8814880e-03
1.1854996e-02
9.8263612e-03
1.1557678e-02
1.6164826e-02
1.0272820e-02
1.1710207e-02
9.6201273e-03
1.0269029e-02
1.4562034e-02
1.0207552e-02
1.5398324e-02
1.0913321e-02
1.0216398e-02
1.5853208e-02
9.6201273e-03
1.0269029e-02
8.6621596e-03
1.4097077e-02
1.0207552e-02
1.2886753e-02
1.0337856e-02
1.5702145e-02
1.0207552e-02
1.5118202e-02
8.8541862e-03
1.0159536e-02
9.8814880e-03
1.3611385e-02
1.4406308e-02
1.4345926e-02
1.2845549e-02
1.0071833e-02
1.0216398e-02
1.3382646e-02
1.1591758e-02
1.4764857e-02
1.6930018e-02
1.4754413e-02
1.1854996e-02
1.0273635e-02
1.2841270e-02
1.2555624e-02
1.3171995e-02
1.1565769e-02
1.0269029e-02
9.6201273e-03
1.0207552e-02
1.6643371e-02
9.6201273e-03
1.1032064e-02
9.7032944e-03
1.4754413e-02
1.1254295e-02
1.0213649e-02
1.0337856e-02
1.3495488e-02
1.1600091e-02
1.0207552e-02
1.0950902e-02
1.2932627e-02
1.0269029e-02
1.5245213e-02
1.2071582e-02
1.0207552e-02
1.4406308e-02
1.4998465e-02
1.2071582e-02
1.7083406e-02
1.5741084e-02
9.7032944e-03
1.7997939e-02
1.2093985e-02
1.0273766e-02
9.6201273e-03
1.0269029e-02
1.6581684e-02
1.1032064e-02
1.0209934e-02
1.4327663e-02
9.6201273e-03
1.4947407e-02
1.0207552e-02
1.7909355e-02
1.5471786e-02
1.3510676e-02
1.1584395e-02
1.1382632e-02
1.0207552e-02
1.2932627e-02
1.6070340e-02
1.6487097e-02
1.1954891e-02
1.3085397e-02
1.0269029e-02
1.4418656e-02
1.2583255e-02
1.3085397e-02
1.2722513e-02
1.6558396e-02
1.2840126e-02
8.7227244e-03
9.6201273e-03
1.6398856e-02
9.7415783e-03
1.0269029e-02
1.8065736e-02
1.0646873e-02
1.4327663e-02
1.0209934e-02
1.0207552e-02
8.7227244e-03
1.3777682e-02
9.6201273e-03
1.8027330e-02
1.1382632e-02
1.2029201e-02
1.8267406e-02
1.4590045e-02
1.2029201e-02
1.6924510e-02
1.5375291e-02
1.0207552e-02
1.5175860e-02
1.0269029e-02
9.7415783e-03
9.6201273e-03
1.7985428e-02
1.6380785e-02
1.0313759e-02
1.1039527e-02
1.2881057e-02
1.2583255e-02
1.0269029e-02
1.0216398e-02
1.0207552e-02
1.0337856e-02
1.0216398e-02
1.7115207e-02
1.0273766e-02
1.7338082e-02
1.6092755e-02
9.6201273e-03
1.3777682e-02
1.1295007e-02
1.6017245e-02
9.6191848e-03
1.2184536e-02
1.6092755e-02
9.6201273e-03
1.5853208e-02
1.0207552e-02
1.5003229e-02
1.7338082e-02
1.8065736e-02
1.3928694e-02
1.0269029e-02
1.0337856e-02
1.1340410e-02
1.2845549e-02
1.0207552e-02
1.4385284e-02
1.5149479e-02
1.0269029e-02
1.2315251e-02
1.1039527e-02
9.6191848e-03
1.3692820e-02
1.4385284e-02
1.2184536e-02
1.2725935e-02
1.0209934e-02
1.5906770e-02
1.0273635e-02
1.6458936e-02
9.6201273e-03
1.1254295e-02
1.2819058e-02
1.3432254e-02
8.8796718e-03
9.6201273e-03
1.5485028e-02
1.3131254e-02
1.7053625e-02
1.7326506e-02
1.0370873e-02
1.0207552e-02
1.2315251e-02
1.1966433e-02
1.0207552e-02
1.1954891e-02
1.3692820e-02
1.0269029e-02
1.5247802e-02
1.0269029e-02
8.8796718e-03
1.2819058e-02
1.4764896e-02
1.7913831e-02
1.7520666e-02
1.0209934e-02
1.0485227e-02
1.6280781e-02
1.3045170e-02
9.6201273e-03
1.4764896e-02
1.6662145e-02
1.0272820e-02
1.3540577e-02
9.6201273e-03
1.2654185e-02
1.3136462e-02
1.6122490e-02
1.5384609e-02
1.3136462e-02
1.2041672e-02
1.0207552e-02
1.4412404e-02
1.0216398e-02
1.0207552e-02
1.7590314e-02
1.0098962e-02
1.0269029e-02
1.1761256e-02
1.0273766e-02
1.0269029e-02
1.5986269e-02
1.0313759e-02
1.7824434e-02
1.2041672e-02
1.5384609e-02
1.0213649e-02
9.6191848e-03
1.1761256e-02
9.6201273e-03
1.4188471e-02
9.6201273e-03
1.1028827e-02
1.0271912e-02
1.5451151e-02
1.0098962e-02
1.6020132e-02
1.3538526e-02
1.3538526e-02
1.6147280e-02
1.5881674e-02
1.0207552e-02
9.2930244e-03
1.4453892e-02
1.4825946e-02
1.1223944e-02
1.0269029e-02
1.0207552e-02
1.0273635e-02
1.2922424e-02
9.2930244e-03
1.0269029e-02
1.7758241e-02
9.6191848e-03
1.4389399e-02
1.4967219e-02
1.7606726e-02
1.5744615e-02
9.6201273e-03
9.6201273e-03
1.3110890e-02
9.8634241e-03
1.6889319e-02
1.6868960e-02
1.0271912e-02
1.6672747e-02
8.6829187e-03
1.4412750e-02
1.0207552e-02
1.4562740e-02
9.8461257e-03
1.4453892e-02
1.0269029e-02
1.4562740e-02
1.3110890e-02
6.8028998e-03
1.5441707e-02
1.3216570e-02
1.0142114e-02
1.0272820e-02
6.8028998e-03
1.5443833e-02
1.8653037e-02
1.0269029e-02
8.6829187e-03
1.4116659e-02
1.4717368e-02
9.3220519e-03
1.1232229e-02
9.6201273e-03
1.5744615e-02
9.6201273e-03
1.3216570e-02
9.8634241e-03
1.8102486e-02
1.4785934e-02
1.6226709e-02
9.8639959e-03
9.6625192e-03
1.1663200e-02
1.4284819e-02
1.3887424e-02
9.8073175e-03
1.0269029e-02
1.0223113e-02
1.4086602e-02
6.9097932e-03
1.0271912e-02
1.0207552e-02
1.4177609e-02
1.6040420e-02
9.9802464e-03
1.2879207e-02
1.6563818e-02
2.0077350e-02
9.6201273e-03
1.6672747e-02
9.2914496e-03
9.6201273e-03
6.9097932e-03
1.1290013e-02
1.3696050e-02
1.2879207e-02
9.7401207e-03
9.8639959e-03
1.4122758e-02
1.3905602e-02
1.3340550e-02
1.0207552e-02
1.3808066e-02
1.4071059e-02
1.0269029e-02
1.5495599e-02
1.3887424e-02
9.8824855e-03
1.0271912e-02
9.7841062e-03
8.5701896e-03
8.3543258e-03
1.3738826e-02
9.6201273e-03
1.0269029e-02
8.5701896e-03
1.8788069e-02
1.1358884e-02
8.3543258e-03
1.4115622e-02
9.6201273e-03
8.6618792e-03
1.0825523e-02
1.6029431e-02
1.5056681e-02
9.7401207e-03
1.5413101e-02
1.5413101e-02
1.2367399e-02
1.2452536e-02
9.7936671e-03
8.6618792e-03
1.0072303e-02
1.3340550e-02
1.7123286e-02
1.3808066e-02
1.2995944e-02
1.3696050e-02
1.0269029e-02
9.8824855e-03
1.4965478e-02
1.3500275e-02
1.8053448e-02
1.4881087e-02
1.0023844e-02
1.4527933e-02
1.2367399e-02
9.6201273e-03
1.4965478e-02
9.7471820e-03
1.0075653e-02
1.3282799e-02
9.8324642e-03
9.6201273e-03
1.3645280e-02
1.4190839e-02
1.4881087e-02
9.7471820e-03
9.5719369e-03
1.5039245e-02
1.0825523e-02
1.4080786e-02
8.4457016e-03
1.0487837e-02
9.5719369e-03
1.0207552e-02
1.4540223e-02
9.3421945e-03
1.6950050e-02
1.0075653e-02
1.1910511e-02
1.3279514e-02
9.3421945e-03
9.1874208e-03
9.6201273e-03
9.5216287e-03
7.9004914e-03
1.4843554e-02
1.8704481e-02
1.0085335e-02
1.6950050e-02
1.7225506e-02
1.4275045e-02
1.0262016e-02
8.4457016e-03
9.5294798e-03
1.7330326e-02
1.2455718e-02
1.7608652e-02
1.5909614e-02
1.2172463e-02
7.9004914e-03
1.5600079e-02
8.9628818e-03
8.4384354e-03
1.0400477e-02
1.2068512e-02
1.2731088e-02
1.4769123e-02
1.0269029e-02
9.6403612e-03
1.1910511e-02
8.9628818e-03
9.6201273e-03
2.0038864e-02
1.8221779e-02
1.0207552e-02
1.1225955e-02
1.5664630e-02
6.6333432e-03
8.3183562e-03
9.5216287e-03
1.3087455e-02
9.1884490e-03
1.4214487e-02
1.0030053e-02
1.7589405e-02
8.5927276e-03
9.7329943e-03
8.5927276e-03
8.4384354e-03
1.1225955e-02
1.8794907e-02
1.2731088e-02
6.6333432e-03
1.5462132e-02
1.9387387e-02
1.0023844e-02
1.5183555e-02
8.7592034e-03
8.7592034e-03
9.9128922e-03
9.6201273e-03
9.7807655e-03
1.3279514e-02
9.8510692e-03
8.4457016e-03
9.6201273e-03
1.8749457e-02
1.3756720e-02
1.6637582e-02
1.6637582e-02
1.3756720e-02
1.0269029e-02
1.4307181e-02
1.5462132e-02
9.7329943e-03
1.4462651e-02
9.5432121e-03
1.4931779e-02
9.8076705e-03
1.8753653e-02
1.3576573e-02
8.9488532e-03
9.7824130e-03
1.3576573e-02
1.1529999e-02
9.1874208e-03
8.4457016e-03
9.6201207e-03
1.7858665e-02
1.0269029e-02
1.4874110e-02
1.7155496e-02
1.0207552e-02
9.5294798e-03
9.6201273e-03
1.3841351e-02
9.8076705e-03
1.0396547e-02
9.7824130e-03
9.8595265e-03
1.4782478e-02
8.9488532e-03
9.8624257e-03
1.4874110e-02
1.4782478e-02
1.5085523e-02
1.3891359e-02
1.5294879e-02
1.8958827e-02
9.7824130e-03
1.1529999e-02
1.6743906e-02
1.4241172e-02
1.6752288e-02
1.0207552e-02
1.5367890e-02
1.4462651e-02
9.6201207e-03
1.0141648e-02
9.7329943e-03
9.6201273e-03
1.4678813e-02
1.4091205e-02
9.8595265e-03
1.3841351e-02
1.5302683e-02
8.5927276e-03
9.7824130e-03
1.6752288e-02
1.3756720e-02
8.5927276e-03
1.8816441e-02
1.9476939e-02
1.0269029e-02
9.4124135e-03
9.8624257e-03
1.3756720e-02
1.1056106e-02
1.5998958e-02
1.5720790e-02
1.6349973e-02
1.0140118e-02
9.8510692e-03
1.7290156e-02
9.7807655e-03
1.0207552e-02
9.4124135e-03
9.3088383e-03
9.6201273e-03
9.7329943e-03
1.3891359e-02
8.9560766e-03
1.7608652e-02
1.0269029e-02
1.5143787e-02
1.5675945e-02
8.9488532e-03
1.0213649e-02
1.2933940e-02
9.5432121e-03
9.9128922e-03
9.7940341e-03
1.5675945e-02
1.3087455e-02
1.4241172e-02
8.4384354e-03
1.7365912e-02
1.4769123e-02
1.4116965e-02
1.7893711e-02
1.3080796e-02
1.5907859e-02
9.8510692e-03
1.0207552e-02
1.6259987e-02
1.3988773e-02
1.2835586e-02
1.7144363e-02
1.0207552e-02
9.6201273e-03
9.6201273e-03
1.3540696e-02
1.0140118e-02
9.8814880e-03
1.1114115e-02
1.3880275e-02
1.0209934e-02
9.6198404e-03
9.1884490e-03
1.2574858e-02
9.4940774e-03
1.2574858e-02
1.0400087e-02
1.4968418e-02
8.9488532e-03
8.4384354e-03
1.1537279e-02
1.6662108e-02
1.1032064e-02
1.0269029e-02
1.8859092e-02
1.7314373e-02
1.5248078e-02
1.6058076e-02
1.7463416e-02
1.0207552e-02
9.4940774e-03
1.6149241e-02
1.6990559e-02
1.3085824e-02
9.6201273e-03
9.7617032e-03
9.6198404e-03
1.0071833e-02
1.7121090e-02
9.6201273e-03
9.8814880e-03
1.0209934e-02
1.1114115e-02
1.6990559e-02
1.7893711e-02
1.4780821e-02
1.0085335e-02
9.4093448e-03
1.5853208e-02
9.9367155e-03
9.7936671e-03
1.0207552e-02
1.0400087e-02
1.7325407e-02
1.4189810e-02
1.3665931e-02
1.0897887e-02
1.5365792e-02
1.5016500e-02
9.4093448e-03
1.4588891e-02
1.3834866e-02
1.0370873e-02
9.6201273e-03
1.0216398e-02
1.3353558e-02
9.7617032e-03
1.5551347e-02
1.6788725e-02
1.0207552e-02
1.0485227e-02
1.3880275e-02
1.0213649e-02
9.6201273e-03
1.5053046e-02
1.6662108e-02
1.7054154e-02
1.1006063e-02
1.3834866e-02
1.0950902e-02
1.3639273e-02
1.0207552e-02
1.0897887e-02
9.8324642e-03
1.8065736e-02
9.6555585e-03
1.0269029e-02
1.2806275e-02
9.7936671e-03
1.5983464e-02
1.7387468e-02
1.0337879e-02
9.6201273e-03
1.1882157e-02
1.0370873e-02
1.7326506e-02
1.0207552e-02
1.4239608e-02
1.0209934e-02
1.3510676e-02
9.8536750e-03
1.1584395e-02
9.7893672e-03
1.5271813e-02
9.6201273e-03
1.5551347e-02
1.7122941e-02
1.1534723e-02
1.0924736e-02
1.7325407e-02
1.4930970e-02
1.1847770e-02
1.2315251e-02
1.2356567e-02
1.8065736e-02
1.0236469e-02
1.1565769e-02
1.3057559e-02
1.3665931e-02
1.1032064e-02
1.0269029e-02
1.5584120e-02
9.6201273e-03
1.5339810e-02
9.8639959e-03
1.3390385e-02
1.8267406e-02
1.0209934e-02
1.0207552e-02
9.8536750e-03
1.3639273e-02
1.0337879e-02
1.4238178e-02
9.6201273e-03
1.4529568e-02
1.4239608e-02
1.4948948e-02
1.4821546e-02
1.6090265e-02
1.6507849e-02
1.6380785e-02
9.7893672e-03
1.2806275e-02
1.4948948e-02
1.7208466e-02
1.3187110e-02
1.0269029e-02
9.6201273e-03
1.3057559e-02
1.0216398e-02
9.9802464e-03
1.2482219e-02
1.0207552e-02
1.0370873e-02
1.5987150e-02
1.3493840e-02
9.8639959e-03
1.3390385e-02
1.3202242e-02
1.0273635e-02
1.0228809e-02
1.1847770e-02
9.6201273e-03
1.7590314e-02
1.6129801e-02
1.0485227e-02
1.2315251e-02
1.2845549e-02
1.2356567e-02
9.6201273e-03
1.4529568e-02
1.0269029e-02
1.0207552e-02
1.6023399e-02
1.3443662e-02
1.0269029e-02
1.8363692e-02
1.1254295e-02
1.0171143e-02
1.0271912e-02
1.1723584e-02
1.0273635e-02
1.1263854e-02
1.6507849e-02
1.3406938e-02
9.6201273e-03
1.2356567e-02
1.0370873e-02
1.3447615e-02
1.0228809e-02
1.3406938e-02
1.5175860e-02
9.7893672e-03
1.0269029e-02
1.6090265e-02
1.3187110e-02
1.3616832e-02
1.1263854e-02
1.1723584e-02
1.0924736e-02
1.7053625e-02
1.0273766e-02
1.0269029e-02
1.0271912e-02
1.3597005e-02
1.1591758e-02
9.6201273e-03
1.7053625e-02
1.3332637e-02
1.5175860e-02
1.0269029e-02
1.3332637e-02
9.7567467e-03
1.3827527e-02
1.7520666e-02
1.2266856e-02
1.0274083e-02
1.8027330e-02
9.7893672e-03
1.0269029e-02
9.6201273e-03
1.0272820e-02
1.8027330e-02
1.2356567e-02
1.6880961e-02
1.0269029e-02
1.0913321e-02
1.7997939e-02
1.7338082e-02
9.6201273e-03
1.3495488e-02
1.1600091e-02
9.7567467e-03
1.5245213e-02
1.0273635e-02
1.0269029e-02
1.7083406e-02
1.0171143e-02
1.7338082e-02
1.1723584e-02
1.7997939e-02
1.6888877e-02
1.8273113e-02
1.2903038e-02
1.0273766e-02
1.0269029e-02
1.6398856e-02
1.0274083e-02
1.0269029e-02
1.4590045e-02
9.7567467e-03
1.2881057e-02
1.0269029e-02
1.1295007e-02
9.7567467e-03
VON_MISES_STRESS 1 2292  float
3.2109976e+07
4.2024396e+07
3.4176148e+07
3.3262222e+07
5.7876268e+07
4.6969432e+07
7.1347336e+07
2.4427358e+07
3.9351212e+07
3.2245298e+07
3.1367528e+07
2.4279642e+07
7.7677872e+07
9.1794456e+07
7.0887616e+07
1.5748126e+07
5.4954300e+07
4.1663680e+07
6.7706224e+07
1.6038715e+07
1.4283985e+07
5.4852532e+07
9.3238056e+07
4.0114060e+07
1.6661288e+07
9.0370430e+06
2.4617040e+07
3.3690776e+07
5.0446416e+07
1.0353503e+08
4.5361904e+07
8.3474536e+07
7.6547145e+06
5.6216648e+07
3.5928512e+07
5.2213660e+07
6.5282930e+06
1.8928894e+07
7.9679064e+07
1.7784260e+07
6.2765232e+07
2.8090675e+06
2.9845854e+07
1.2946584e+07
3.5380828e+07
6.6988365e+06
3.3179962e+07
3.9698252e+07
1.6616239e+07
3.8495415e+06
1.5666284e+07
2.4183538e+06
3.6300378e+06
6.6393470e+06
1.1492777e+07
1.8835412e+07
2.4055950e+07
3.7961272e+07
1.2997670e+07
6.9800805e+06
1.6824696e+06
5.8836612e+07
9.6727020e+06
5.6680415e+06
8.7475770e+06
2.3791145e+06
4.1570352e+06
7.4842312e+07
2.2198055e+06
7.0377810e+06
6.1689135e+06
3.0733120e+06
6.4379808e+07
2.7277150e+06
4.2070364e+07
2.5881622e+06
5.3086220e+07
2.0165194e+06
3.7705748e+07
1.4629268e+07
5.5690610e+06
2.8100470e+06
2.1995078e+07
3.8291338e+06
5.2156615e+06
2.0117652e+06
2.4161745e+06
2.7768362e+07
2.7932860e+06
3.5767928e+07
9.4424260e+06
3.3456775e+06
1.8279782e+06
2.2954688e+06
1.3695077e+07
4.6928736e+07
2.0223835e+06
1.2535026e+08
3.0841862e+06
1.8536028e+06
2.2759855e+06
1.7764421e+06
4.0338180e+07
9.0893432e+07
9.1805610e+06
1.4040116e+07
9.4228296e+07
1.9212284e+06
2.0999898e+06
1.5532576e+06
1.5354349e+06
6.2340516e+07
3.1491762e+06
2.4234050e+07
2.4499178e+06
1.2259802e+07
4.8692050e+06
1.6676101e+06
4.2367808e+07
2.1487718e+06
3.0188922e+06
1.7305524e+06
1.8643534e+06
1.4953282e+06
2.6115952e+07
2.6655860e+07
1.5563042e+06
4.2672740e+06
6.0761515e+06
1.1656231e+07
1.4097250e+06
2.6783855e+06
1.9544726e+06
5.1699244e+07
2.5625642e+06
1.4127449e+06
1.4280149e+06
2.3148768e+07
1.2262919e+06
5.1337420e+06
1.3406563e+07
1.9615451e+06
1.3464865e+06
5.8288340e+07
1.7717781e+06
3.0054390e+07
3.4409132e+07
1.2814846e+06
2.6452250e+07
1.3784456e+06
1.9645340e+06
3.2661088e+07
1.2956216e+06
2.4263985e+06
3.4799292e+07
3.8953084e+07
9.6957562e+05
1.6139680e+06
1.2986417e+07
6.2410335e+06
1.0604050e+08
9.2223925e+05
2.5051052e+06
1.2065553e+07
1.8748374e+06
9.3124406e+05
8.5651820e+06
1.4358918e+06
1.5643556e+06
1.7974654e+07
2.8479732e+07
2.7291394e+07
9.6614500e+05
3.1264332e+07
4.9479095e+06
4.5116216e+07
5.4512924e+07
2.3306534e+07
1.0825108e+06
7.0663269e+05
1.6643090e+06
3.4965680e+07
1.4070438e+07
3.2071525e+06
1.0729291e+06
1.6070992e+06
1.0610052e+08
1.4503457e+07
1.7178274e+06
7.0669885e+06
1.3352679e+06
3.1073385e+06
4.4861995e+06
2.6628438e+06
8.5023775e+05
8.4727910e+06
6.8656488e+07
1.4849150e+07
5.0030600e+06
5.2656500e+06
1.5586895e+06
1.7125933e+08
6.6806765e+06
3.0808452e+07
6.5876256e+05
2.1539166e+08
1.1965894e+06
1.1947980e+06
1.7103110e+06
6.8415969e+05
2.6040190e+06
1.2307084e+06
4.0656478e+06
1.0356420e+07
5.4045935e+06
7.9971296e+07
1.9576145e+06
2.0602244e+06
8.0586162e+05
5.5284130e+06
3.2713025e+06
7.1621830e+06
1.0224027e+06
5.1572925e+05
1.9883982e+07
5.5586375e+06
1.4320372e+06
3.0229998e+06
3.8653732e+06
5.3366030e+06
5.6709719e+05
4.7945235e+06
1.2578421e+06
1.8727280e+06
7.0243045e+06
5.9234862e+05
1.4340126e+06
3.7168908e+06
4.0017678e+06
3.1514345e+06
8.0837038e+05
2.5357298e+06
9.4365569e+05
1.1885212e+06
1.1170586e+06
1.9440968e+06
3.3686732e+06
9.7149025e+05
4.0893392e+06
1.2578944e+06
4.0075594e+05
5.7714535e+06
3.6681895e+06
2.8178915e+06
1.1880366e+06
6.1034262e+05
3.1301118e+06
1.4398856e+06
2.3010590e+06
3.6895692e+06
9.5805562e+05
8.5506400e+05
2.4431540e+06
1.5074516e+06
1.0128912e+06
4.7340081e+05
5.0762078e+05
1.0078572e+06
1.3156238e+06
3.7762900e+06
3.4432897e+05
1.2743539e+06
6.1435762e+05
3.0425355e+06
4.5105325e+06
3.0327942e+06
1.9488748e+06
9.6594500e+05
2.5529532e+06
2.4462268e+06
1.5889124e+06
1.0384088e+06
4.8097869e+05
3.0625028e+05
7.5631094e+05
1.5223639e+06
3.3277125e+06
7.4690194e+05
2.1065570e+06
5.6185650e+05
3.0078988e+06
2.0840881e+06
3.9645103e+05
1.1095979e+06
1.5199315e+06
1.6019812e+06
1.1723010e+06
3.0311066e+05
6.2452431e+05
2.3199608e+06
8.0021681e+05
1.7456608e+06
1.2544121e+06
5.8804812e+05
5.6828056e+05
2.6439230e+06
8.4619900e+05
1.9726628e+06
8.3328144e+05
1.4293860e+06
1.2414365e+06
2.0826722e+06
3.4526850e+05
2.6035835e+06
4.0354644e+05
7.7545519e+05
9.0115894e+05
1.8482876e+06
1.2790559e+06
7.6378275e+05
9.2351750e+05
7.3821606e+05
7.1665138e+05
2.1831538e+06
1.5643546e+06
3.6552572e+05
1.5045659e+06
5.9967388e+05
1.9723898e+06
1.0076658e+06
3.9425244e+05
2.0907235e+06
7.7897556e+05
5.2863212e+05
1.6740409e+06
4.4462025e+05
6.0085562e+05
1.1921320e+06
4.4449866e+05
1.4217685e+06
7.8420556e+05
4.1199034e+05
9.7550031e+05
7.9935844e+05
1.0413204e+06
5.5550275e+05
1.2548629e+06
1.9128069e+06
7.4209269e+05
2.0582724e+06
1.1292502e+06
5.1433403e+05
3.8335934e+05
1.5044298e+06
1.1852834e+06
2.0823060e+06
1.2408242e+06
7.4877431e+05
5.1700244e+05
1.3414338e+06
5.3514250e+05
1.0413650e+06
5.8112369e+05
7.9707100e+05
8.2099375e+05
3.9813406e+05
1.2347839e+06
8.8399662e+05
1.4881655e+06
4.0151147e+05
7.2231025e+05
6.5994406e+05
6.1446744e+05
1.7718832e+06
1.4310040e+06
6.6240594e+05
1.6505451e+06
1.0540978e+06
1.3437072e+06
4.2828956e+05
5.0073778e+05
4.2709650e+05
7.4393438e+05
4.0720197e+05
5.2198278e+05
6.1667900e+05
9.6642031e+05
1.0278006e+06
1.3630491e+06
9.3114675e+05
8.7098500e+05
7.6588744e+05
4.5945247e+05
6.8463412e+05
1.4687581e+06
5.9966969e+05
3.3044088e+05
6.5220256e+05
7.4734881e+05
1.3508422e+06
1.7493429e+06
3.5059347e+05
9.1903631e+05
3.1172012e+05
1.0310888e+06
9.9109331e+05
4.9396953e+05
1.2016940e+06
1.1973500e+06
6.8575269e+05
5.9016300e+05
3.8201353e+05
1.1253406e+06
3.8075866e+05
7.5538019e+05
3.3438828e+05
8.2790669e+05
9.5275850e+05
4.8116519e+05
9.5686656e+05
1.1785139e+06
8.4010444e+05
1.2465138e+06
6.8924869e+05
1.3521746e+06
9.9539038e+05
2.6842081e+05
9.1724981e+05
8.0143925e+05
4.2902941e+05
6.5208238e+05
9.7629531e+05
2.9696247e+05
6.2061762e+05
6.8732212e+05
1.0604482e+06
3.2945619e+05
1.1021292e+06
8.1969494e+05
3.0693906e+05
5.5419706e+05
9.2677744e+05
3.9128156e+05
3.2834203e+05
1.0287985e+06
2.2635117e+05
1.1841501e+06
6.3511562e+05
9.8288156e+05
5.0543034e+05
1.2114348e+06
9.2108244e+05
2.2090530e+05
1.0813736e+06
7.1867900e+05
8.4614562e+05
1.1401464e+06
8.5106750e+05
1.1200565e+06
3.0554103e+05
6.8820950e+05
8.0710225e+05
5.1423522e+05
5.2635675e+05
1.1309611e+06
1.0174714e+06
5.3626350e+05
9.5640269e+05
1.1383000e+06
2.0996381e+05
2.0630219e+05
1.0090936e+06
8.6619550e+05
1.0495800e+06
6.7460375e+05
6.7337575e+05
4.9982109e+05
2.6122103e+05
1.1839071e+06
8.1863356e+05
7.5119031e+05
1.1974141e+06
9.6047275e+05
6.3988675e+05
4.9753759e+05
8.0747900e+05
4.6856259e+05
7.2381519e+05
8.4735569e+05
1.0537220e+06
7.5914419e+05
2.2801505e+05
1.4137991e+06
7.1356438e+05
2.6321266e+05
6.9770175e+05
3.1492116e+05
8.6555962e+05
1.2633666e+06
1.4160499e+06
1.1511449e+06
3.4657031e+05
6.6346425e+05
1.3680539e+06
5.7519412e+05
6.9548688e+05
6.6863225e+05
1.0002207e+06
1.0284696e+06
4.9059697e+05
7.9664350e+05
1.2828706e+06
3.7874056e+05
1.1466274e+06
1.3982428e+06
3.3363016e+05
7.5025062e+05
1.8370570e+06
8.8639588e+05
6.5044631e+05
1.0301028e+06
9.9070300e+05
2.1693262e+06
1.2407710e+06
7.0621619e+05
6.1989262e+05
6.4830856e+05
7.9299250e+05
5.0018969e+05
5.4520731e+05
7.4046112e+05
6.5871369e+05
3.8340942e+06
3.7624731e+05
1.7721774e+06
7.1617862e+05
5.4711105e+06
6.1912794e+05
1.6662924e+06
2.3312792e+06
9.0875731e+05
7.4861819e+05
5.0946272e+05
1.0334262e+07
8.9295600e+05
5.4844356e+05
2.1004012e+07
1.5727644e+06
2.0809494e+06
9.5544888e+05
9.4882312e+05
8.2635319e+05
1.2124151e+06
2.5032186e+07
1.1717164e+07
6.4497460e+07
7.1114456e+05
6.2933562e+05
6.9244931e+05
1.8572168e+08
7.8189231e+05
4.8644520e+07
5.3375844e+05
1.4995138e+08
4.2799535e+06
1.2456062e+06
1.8548584e+06
9.2420840e+07
6.6523538e+05
7.6919719e+05
1.1464899e+06
1.3927452e+06
1.4442525e+07
1.5395686e+06
6.9554900e+05
4.5301052e+07
8.9763056e+05
6.6485481e+05
6.0323580e+07
1.5099196e+06
1.2481460e+06
1.1698024e+06
3.2705042e+06
8.6737769e+05
7.9685906e+05
6.2497388e+05
7.3289512e+05
2.0037179e+06
7.5442262e+05
4.2991372e+07
1.7068338e+06
7.7885210e+06
7.7744025e+05
6.6457181e+05
1.6561011e+07
4.7559320e+07
7.5307162e+05
1.4170521e+06
1.0420501e+06
1.6756330e+07
7.2986419e+05
8.4243694e+05
6.8074231e+05
1.0391904e+06
9.1684762e+05
1.7896956e+06
2.7102740e+06
8.1118169e+05
4.8806120e+06
5.4353088e+05
1.6656105e+06
2.9839862e+06
1.0181341e+06
9.5785781e+05
5.7238792e+07
7.3715238e+05
8.7812040e+07
4.7420115e+06
4.3183992e+07
8.8087256e+05
1.9302875e+06
1.0013835e+06
1.3259251e+06
1.6270097e+07
1.3067272e+06
2.0642310e+06
8.1111950e+05
5.4042380e+06
8.0003462e+05
5.7237100e+06
9.1137294e+05
3.1614056e-06
1.0658419e+06
2.5154313e-06
2.2494200e+07
3.2418898e-06
1.8657156e+07
2.3241207e-06
3.1172854e-06
2.9664400e-06
3.6717358e-06
2.9703447e-06
3.3981019e-06
1.0207024e+06
3.7746395e-06
7.0511781e+05
7.8444592e+07
7.7630756e+05
3.4007171e-06
3.8996462e+06
7.3021456e+05
2.4227954e+07
3.5781832e-06
3.4400948e+07
2.7235451e-06
1.7659806e+06
2.1591008e+06
2.8730205e-06
2.7942524e-06
4.7722328e+07
3.3526833e-06
8.7050500e+05
8.6229375e+05
1.0338385e+06
1.7203909e+06
1.2550505e+06
2.6401428e-06
8.2858106e+05
9.7156544e+05
1.8877631e+06
2.5048132e+06
1.0202757e+06
6.6070336e+07
9.9317019e+05
3.2799942e-06
2.9449645e-06
8.3217310e+06
3.3686683e-06
3.6888948e+06
2.8730246e-06
3.4574250e-06
2.8095917e-06
7.5309556e+05
2.3162455e+06
1.0723330e+06
2.4460683e-06
1.8758772e+07
3.0892380e+07
8.8338906e+05
1.5818574e+06
2.9302214e-06
2.7843885e-06
1.3950306e+06
1.1005908e+06
2.9063740e+07
9.5075825e+05
3.2536709e-06
1.4192642e+07
1.0110886e+06
6.3564840e+06
2.3132010e+06
4.8473960e+07
8.2953238e+05
1.0477546e+06
2.3265378e+06
3.5779844e+07
2.8549795e+06
5.4143688e+07
3.2751007e-06
5.9685868e+07
5.8495205e+06
2.8963898e-06
4.7810480e+06
1.2382461e+06
1.4195892e+06
3.0615652e-06
8.6257260e+06
2.9660530e-06
1.2248698e+06
2.3024256e-06
3.9808428e-06
8.2515494e+05
1.0331978e+06
2.8884208e-06
4.8373024e+07
3.0058156e-06
1.0020090e+06
1.1580028e+06
3.4999659e-06
1.7751778e+07
1.1468155e+07
2.5462762e-06
6.4275365e+06
3.4461236e-06
2.6459124e-06
3.3853835e+06
1.0003416e+06
3.2883333e-06
3.4166212e-06
3.4973948e-06
5.5567636e+07
2.4965627e-06
3.0420158e-06
1.4965366e+06
1.2350202e+06
3.6760240e+07
2.8611823e-06
1.4760805e+08
2.8919546e-06
1.5966452e+06
3.6055990e-06
2.6552152e+06
1.1572445e+06
8.6823269e+05
1.1258651e+08
5.8442444e+07
4.6994655e+06
1.4111358e-06
4.5668560e+06
2.4956996e-06
9.7313650e+06
2.7374358e-06
1.7924139e+06
6.9063925e+05
9.0743538e+05
1.1918850e+06
3.4102804e-06
2.8545386e+07
3.2635876e-06
2.9647604e-06
2.5108912e+06
1.9758500e+07
1.3913702e+07
1.5032451e+06
3.0763686e-06
3.5494425e-06
3.9064735e-06
3.8026451e-06
1.7408590e+07
2.6501164e-06
3.1067520e-06
9.5369962e+05
3.3487150e+07
6.4927930e+06
1.4934536e+06
1.0140369e+06
3.5282958e-06
3.1637255e-06
2.5724003e-06
2.9567482e-06
2.5500121e-06
1.3149269e+06
2.4518084e+07
1.3414245e+06
5.7116028e+07
4.8905840e+07
1.1161118e+06
1.1713037e+08
3.3785316e-06
3.1484221e-06
2.8017425e-06
2.9001460e-06
3.4766917e-06
3.0777817e-06
3.3520378e-06
8.3601660e+06
3.1775230e-06
2.9990533e-06
2.7781955e-06
1.8786965e+06
1.4889034e+06
3.1998291e-06
2.4415556e-06
1.3192405e+06
3.4142988e+07
3.1886868e-06
3.0073084e-06
1.7433462e+06
2.5549618e+06
3.3695981e-06
3.2006017e-06
2.8693428e-06
2.6070584e-06
2.8915892e-06
3.2748169e-06
2.8891939e-06
2.6799851e-06
2.1916695e+06
3.0959868e-06
1.4753148e+06
4.1419740e+06
1.8767965e+06
4.2279176e+07
4.6538572e+07
1.6838878e+06
3.0234683e-06
1.1474432e+07
3.3904500e+07
3.4981984e+07
7.0040680e+07
3.6498657e-06
2.0899602e+07
3.2373565e+06
2.6072702e+06
3.6796752e+06
2.8966849e-06
3.1774725e-06
3.0796898e-06
3.6287872e-06
2.4875264e-06
2.0199655e+06
4.4837585e+06
3.1552438e-06
3.2205978e-06
1.6048468e+06
3.3192428e-06
3.1549193e-06
7.5189070e+06
2.4010897e-06
2.2137005e+06
2.7667866e-06
3.8526296e-06
3.1503419e-06
3.3643935e-06
3.0257081e-06
9.8206360e+06
1.4711320e+07
2.4705312e-06
1.7675639e+06
2.3552309e-06
2.6340604e-06
1.7130440e+07
9.7110390e+06
2.8937870e-06
3.2987746e-06
3.6184742e-06
2.4991920e+07
3.3756942e-06
3.1754350e-06
2.9335868e-06
4.0066168e+07
3.0835442e-06
3.2536622e+07
3.0048081e-06
3.2074599e-06
6.3539536e+07
2.1724118e+07
5.6810076e+07
3.1152069e-06
1.9852664e+06
6.4571424e+07
3.2148960e-06
3.1909867e-06
4.2486516e+07
1.7755915e+06
2.4152600e+06
3.1242071e-06
4.4698248e+07
3.2446267e-06
3.3711294e-06
7.7880550e+06
4.0137250e+06
3.3451631e-06
3.0246197e-06
8.0766744e+07
2.7782090e+06
2.8416237e-06
1.6903244e+07
3.1712927e-06
3.0610763e-06
3.3897547e-06
3.8573016e-06
2.9727639e-06
2.7194089e-06
2.5536929e-06
3.8391113e-06
3.2097983e-06
2.9373286e-06
2.0275382e+06
3.3553055e+06
2.7979165e-06
2.7452948e-06
2.2860130e+06
3.2860896e-06
3.4611739e-06
2.6807356e-06
3.3757742e-06
2.6546059e-06
3.3676095e-06
2.2602480e-06
5.5124775e+06
1.5037370e+07
2.6662997e-06
7.6366864e+07
2.6981593e-06
2.3925230e+06
2.9896105e-06
2.8587074e-06
2.8799508e+06
2.8259342e-06
2.8286406e-06
2.6391770e-06
3.5995815e-06
3.6260124e-06
2.8861398e+06
3.2012433e-06
3.7289767e-06
3.8178718e+06
3.1557015e-06
2.1388115e+06
3.1979569e-06
3.5490972e+07
3.0221952e-06
4.5078850e-06
2.8457132e-06
2.1901574e+07
4.2864076e-06
2.6896398e-06
3.0719648e+07
2.8712102e-06
3.3348404e-06
2.8445045e-06
4.8239475e+06
4.0944992e-06
2.7208712e-06
3.5701707e-06
3.3524848e-06
3.5339415e-06
7.2808380e+06
2.5979227e-06
2.5408750e+06
3.1481125e-06
3.5555422e-06
3.7831435e-06
2.7646468e+06
4.8844313e-06
2.5165348e-06
3.1551995e-06
3.8512694e-06
2.9676416e-06
7.4397985e+06
3.2573623e-06
3.1531961e-06
4.3506200e+07
3.7512368e-06
3.2313749e-06
2.7368378e-06
1.3371721e+07
2.9717501e-06
3.1507120e-06
2.9837090e-06
2.5579227e-06
3.7954940e-06
2.9393807e-06
2.6315997e-06
2.9175958e-06
4.1317667e-06
3.2008024e-06
3.8492032e+06
4.0045547e-06
4.9224524e+07
2.9665471e-06
6.1322000e+06
2.6423750e+06
4.2248898e-06
4.5299489e-06
3.0626363e-06
3.3688173e-06
3.4606220e+07
2.2657710e+07
1.4926347e+07
4.6439604e-06
2.3163755e-06
2.8130644e-06
4.0548666e-06
3.1914868e+07
3.2258033e-06
2.8736392e-06
2.8190129e-06
2.8896395e-06
4.1014546e-06
2.6884297e-06
2.8332286e-06
4.2347992e-06
2.4795800e-06
3.2791572e-06
3.4365605e-06
2.8978441e-06
3.6360282e-06
3.6762456e-06
2.8445456e-06
2.9463897e-06
1.9800982e-06
3.2469893e-06
3.0949332e+07
4.9469650e+06
5.5948036e+07
2.9239429e-06
2.7025424e-06
2.6043790e+06
2.9777327e-06
3.5837829e-06
2.8083471e-06
4.0342402e-06
3.0870947e-06
3.2161850e-06
3.0671790e-06
3.7028353e-06
3.2212713e-06
3.3757392e-06
3.4082739e-06
3.5942235e-06
5.0709660e+06
4.9984033e-06
3.7668851e-06
3.2183509e-06
4.4547537e-06
3.6951628e-06
3.8059879e-06
2.8889858e-06
3.1208542e-06
2.5322972e-06
4.3045957e-06
3.7233310e+06
3.5934931e-06
3.3698545e-06
2.6898251e-06
2.7834399e-06
3.7807943e-06
4.1531464e+07
3.4730976e-06
3.0360425e-06
2.4510746e-06
2.3507885e-06
7.5412025e+06
3.2235571e-06
2.8316067e-06
3.1376533e-06
5.9817871e-06
3.2353742e-06
4.2014144e-06
3.3669880e-06
4.7047129e-06
2.2700054e+07
3.3635388e-06
3.0952369e-06
2.8177349e-06
3.3651770e-06
4.8302668e-06
1.5930569e-06
5.3702855e+06
3.0961489e-06
3.5983867e-06
4.6354952e+07
3.0755064e-06
6.1066053e-06
3.7219509e-06
3.8978951e-06
3.1078937e-06
3.4048044e-06
2.5238478e-06
3.7234809e-06
3.5328158e-06
3.3011513e-06
2.9124433e-06
2.4406227e-06
2.6057266e-06
2.7759072e-06
4.5305010e+06
3.3812544e-06
2.8770128e-06
3.3286788e-06
3.0498625e-06
2.0465241e-06
3.2286794e-06
4.4194139e-06
2.2910874e-06
2.7639198e-06
2.8571410e-06
3.7983816e-06
3.5020582e-06
3.5691880e-06
1.6062833e+07
4.6918694e-06
2.9450985e-06
4.3679470e-06
2.8488337e-06
2.6408754e-06
3.2313123e-06
3.1418870e-06
3.0107485e-06
3.3073447e-06
4.6305113e-06
7.6099022e-06
3.2867966e+07
3.0240883e-06
3.7170860e-06
4.2645511e-06
3.1101129e-06
3.4315378e-06
6.0143804e+07
7.1332384e+07
2.1727826e-06
3.3919366e-06
3.2350256e-06
3.0508807e-06
3.1961147e-06
2.6387734e-06
3.1722939e-06
3.2394455e-06
3.2476419e-06
4.2296301e-06
2.6048874e-06
3.7645686e-06
2.8971967e-06
3.8559388e-06
2.7025228e-06
2.9844946e-06
2.8514939e-06
4.0027408e-06
9.1848033e-06
2.6011296e-06
4.5643492e-06
2.3927644e-06
3.2871949e-06
4.4339781e-06
5.1187776e-06
3.7523280e-06
3.5090870e-06
2.8386314e-06
3.6323233e-06
3.0819358e-06
2.8611751e-06
4.6414752e-06
3.4061934e-06
3.6084023e-06
2.6366763e-06
4.1203298e-06
3.6607935e-06
4.0864870e-06
1.8963939e-06
3.9070032e-06
3.2697540e-06
3.0597594e-06
3.3009856e-06
3.6413639e-06
3.2881740e-06
3.9336214e-06
3.9021606e-06
3.2403668e-06
3.1828065e-06
3.1731142e-06
3.2899504e-06
2.3816506e-06
2.3577047e-06
2.4349577e-06
3.8680250e-06
3.6427273e-06
3.9641377e-06
2.7312979e-06
3.3239949e-06
3.3786534e-06
2.0261621e-06
4.8468078e-06
3.1562170e-06
4.0073619e-06
2.7574597e-06
4.0670006e-06
3.4469770e-06
3.8772605e-06
3.7836526e-06
2.8805609e-06
6.0715547e-06
3.4986542e-06
6.1426226e-06
3.2096707e-06
3.3119863e-06
3.2046364e-06
5.2139999e-06
3.4842567e-06
2.1142062e-06
2.7103499e-06
3.0209342e-06
3.0023118e-06
4.2262254e-06
3.3427964e-06
3.8301760e-06
3.1538045e-06
5.9594231e-06
2.9099626e-06
3.2657729e-06
3.1352602e-06
5.1721790e-06
2.8053021e-06
2.8013139e-06
5.0019685e-06
3.4764682e-06
2.6986254e-06
2.9982884e-06
2.9172597e-06
3.0152837e-06
3.5631879e-06
2.3867142e-06
3.4836435e-06
3.7957934e-06
3.5100443e-06
5.5204609e-06
3.5420194e-06
3.0992621e-06
3.0516708e-06
4.3365508e-06
2.8610664e-06
3.2581702e-06
3.7486143e-06
4.2637635e-06
4.4668941e-06
3.5598782e-06
5.7903667e-06
3.8474382e-06
4.0093300e-06
2.7656354e-06
2.6427811e-06
3.7212419e-06
3.2500204e-06
4.2064748e-06
2.5152440e-06
2.4348776e-06
3.0978788e-06
2.9928044e-06
3.1237053e-06
3.6111819e-06
2.6435021e-06
7.1396366e-06
3.2661010e-06
4.0999903e-06
3.8130595e-06
2.2600520e-06
3.7606496e-06
2.8073955e-06
2.8382044e-06
3.4148959e-06
7.1018289e-06
2.8699760e-06
2.1206381e-06
5.9532777e-06
3.0948879e-06
2.2013194e-06
5.0403228e-06
3.7260634e-06
4.6357236e-06
3.6405825e-06
1.9861116e-06
3.1847114e-06
2.0611772e-06
3.9046081e-06
4.1803892e-06
4.1043909e-06
4.1218987e-06
3.4965394e-06
4.2636075e-06
2.6307325e-06
4.1403973e-06
3.3822173e-06
4.4513731e-06
7.5874714e-06
3.6443205e-06
3.1783238e-06
1.7375381e-06
3.7196114e-06
2.9354521e-06
3.0660515e-06
3.6689391e-06
4.1655599e-06
2.8661445e-06
3.7807820e-06
8.7181843e-06
3.5444973e-06
2.7248827e-06
4.8452844e-06
2.7974634e-06
3.2870603e-06
4.0622867e-06
3.4155155e-06
2.9636651e-06
3.4966115e-06
4.6659602e-06
3.7279649e-06
3.3742215e-06
3.9720185e-06
5.1721167e-06
1.1553423e-05
4.1000244e-06
4.5528568e-06
3.4337438e-06
2.0642872e-06
2.9055382e-06
3.8860603e-06
1.4244168e-06
3.0152530e-06
4.1509961e-06
3.2175560e-06
3.5303053e-06
4.3081118e-06
4.4626318e-06
3.3096615e-06
4.5718843e-06
3.3805404e-06
3.5521825e-06
2.9907853e-06
3.7896643e-06
3.2290352e-06
4.2327433e-06
4.2204629e-06
6.6181196e-06
3.6854365e-06
3.7852697e-06
2.2639294e-06
2.2463671e-06
2.9171601e-06
3.9159604e-06
2.6522384e-06
4.4629323e-06
7.2123912e-06
3.7784805e-06
4.4466960e-06
4.1227886e-06
3.4276691e-06
2.7389294e-06
5.1582210e-06
3.2920091e-06
3.0266092e-06
9.3059152e-06
4.3553191e-06
6.4839555e-06
3.3476035e-06
3.2256723e-06
5.2013866e-06
4.1721637e-06
3.5120888e-06
3.9473807e-06
3.2428984e-06
3.1904801e-06
3.2095877e-06
4.4189856e-06
4.4134254e-06
5.8717710e-06
3.7722421e-06
4.2684896e-06
4.8709453e-06
3.5527646e-06
5.2593909e-06
5.9511317e-06
7.6807346e-06
4.1973308e-06
3.6147255e-06
1.3042583e-05
4.4007843e-06
3.9294232e-06
3.9481997e-06
4.8231427e-06
3.9885167e-06
3.4030661e-06
4.1905701e-06
5.2212022e-06
4.2690681e-06
3.2304395e-06
4.1138019e-06
1.1590042e-05
4.9343603e-06
3.6035394e-06
4.1397670e-06
4.6923496e-06
3.3214594e-06
2.9901159e-06
2.7077872e-06
3.0506594e-06
4.0998989e-06
6.8038939e-06
5.8137566e-06
4.2799279e-06
3.5293515e-06
3.5067872e-06
3.2552909e-06
3.3519175e-06
5.1843272e-06
3.6463809e-06
2.7514000e-06
4.2924275e-06
4.4732360e-06
3.6273543e-06
4.1811918e-06
1.0026369e-05
3.8744256e-06
3.3910619e-06
3.4724035e-06
4.2469214e-06
2.4829956e-06
2.7844922e-06
3.2601870e-06
5.8078044e-06
4.6720484e-06
3.6572069e-06
2.8140737e-06
4.1533440e-06
4.1613466e-06
3.7366290e-06
3.7336097e-06
3.8304343e-06
3.9898860e-06
2.9796140e-06
3.7476505e-06
5.4483253e-06
3.5721491e-06
4.0486334e-06
6.0808634e-06
4.0497944e-06
4.1736735e-06
4.1889716e-06
3.3835493e-06
3.8321418e-06
3.6370616e-06
3.8160742e-06
3.6979977e-06
5.1738134e-06
3.7450461e-06
2.8733587e-06
3.1648090e-06
3.8311910e-06
3.0409431e-06
3.5334424e-06
4.7609578e-06
4.0392765e-06
3.8183744e-06
3.0666729e-06
4.3220780e-06
3.7142106e-06
6.2917952e-06
4.8631305e-06
4.2497782e-06
3.8283151e-06
6.5364879e-06
3.0437434e-06
3.4401858e-06
4.1262870e-06
3.7315795e-06
3.9688421e-06
5.0287044e-06
3.6406545e-06
3.4800355e-06
4.0712207e-06
4.4462704e-06
3.3888803e-06
3.8816033e-06
3.8380967e-06
3.7942323e-06
3.4233567e-06
3.4534808e-06
5.2903506e-06
4.0655286e-06
3.6851457e-06
4.5317020e-06
3.8651619e-06
3.9442475e-06
3.6739639e-06
5.0701224e-06
3.2329356e-06
2.3285040e-06
3.4053216e-06
4.3607893e-06
4.2197444e-06
3.7509515e-06
4.2766119e-06
3.2977323e-06
3.2524024e-06
2.6044870e-06
5.4042516e-06
4.4104900e-06
3.9149518e-06
3.7673205e-06
3.5181572e-06
3.8732333e-06
4.6846740e-06
3.8167582e-06
3.4872642e-06
3.9821512e-06
3.6020958e-06
4.4642175e-06
4.6198152e-06
3.4595466e-06
3.1403290e-06
6.0989851e-06
3.5323515e-06
4.8042716e-06
3.7959476e-06
3.6157019e-06
3.4187708e-06
3.3332303e-06
2.1927781e-06
3.5080695e-06
3.0193330e-06
3.7809998e-06
3.2703836e-06
3.6101437e-06
3.4093798e-06
3.9280121e-06
3.0293936e-06
3.8780613e-06
4.2223623e-06
3.4785091e-06
2.9744294e-06
3.6184060e-06
2.3615510e-06
3.6103916e-06
3.5883568e-06
3.8642474e-06
4.1869480e-06
4.2233937e-06
3.9142765e-06
3.1133379e-06
4.9143250e-06
3.1572599e-06
6.5086228e-06
5.9819890e-06
3.2743567e-06
4.0249383e-06
3.7289362e-06
4.0168961e-06
4.2800339e-06
2.7832882e-06
3.9161305e-06
3.5867090e-06
3.6137128e-06
3.3770489e-06
3.0712929e-06
3.7453783e-06
3.4951820e-06
3.3819338e-06
3.2968378e-06
3.5090702e-06
4.2495994e-06
2.8154475e-06
1.6086830e-06
4.4944932e-06
4.6170439e-06
3.5830844e-06
3.8023454e-06
3.5945511e-06
3.6263998e-06
3.7042530e-06
3.7774598e-06
4.4862290e-06
3.7900254e-06
5.8096057e-06
5.3086728e-06
4.3490750e-06
3.1652505e-06
3.3365718e-06
3.4016880e-06
4.7112439e-06
3.0713761e-06
3.6112156e-06
4.0187410e-06
3.4432248e-06
3.6512979e-06
3.4834773e-06
4.2501511e-06
2.3380867e-06
3.9137803e-06
4.1421240e-06
3.7226082e-06
3.5817466e-06
3.5419455e-06
4.0262794e-06
1.5804421e-06
3.7204870e-06
3.3896872e-06
3.9927204e-06
4.9670634e-06
3.3030328e-06
3.1457296e-06
3.1778879e-06
3.0003112e-06
3.0371448e-06
3.6647580e-06
3.4804859e-06
3.0423630e-06
3.1274467e-06
3.4918692e-06
2.8613015e-06
4.4521307e-06
2.6648454e-06
3.1613442e-06
2.8507789e-06
2.7130031e-06
3.1781040e-06
3.1722038e-06
3.7026982e-06
3.4537209e-06
3.4784914e-06
3.2810328e-06
2.7122035e-06
3.6147167e-06
2.4630733e-06
2.9838336e-06
2.6179291e-06
4.2282918e-06
2.1831474e-06
2.6961764e-06
3.3828262e-06
3.4642858e-06
3.4142324e-06
2.7567264e-06
3.7918039e-06
3.8516896e-06
3.5668888e-06
3.9547681e-06
2.9823657e-06
2.9839621e-06
2.4100291e-06
3.0390102e-06
2.8211057e-06
3.0838535e-06
2.3403306e-06
2.7612468e-06
2.7036376e-06
3.1349466e-06
3.6832394e-06
4.6662676e-06
3.0535298e-06
2.6644966e-06
3.6964052e-06
2.1416179e-06
3.3493061e-06
3.9497022e-06
4.7433718e-06
4.2852967e-06
3.7234704e-06
2.8630113e-06
2.8322202e-06
4.1220060e-06
3.2155467e-06
3.7415602e-06
2.2138615e-06
3.4320190e-06
4.1810154e-06
4.2418428e-06
3.3681829e-06
3.4341956e-06
2.5716843e-06
5.2149098e-06
3.3505396e-06
3.1533493e-06
2.8311399e-06
4.6196351e-06
6.0043903e-06
2.9327398e-06
3.7845721e-06
2.6895134e-06
3.3326578e-06
3.3018928e-06
2.7245430e-06
3.9324318e-06
3.4975758e-06
5.3728450e-06
4.9603714e-06
3.4266541e-06
3.3706797e-06
2.9766040e-06
4.1745993e-06
2.2033321e-06
3.5797857e-06
2.8656609e-06
5.4764892e-06
2.4400958e-06
3.1551840e-06
6.4800679e-06
4.2243014e-06
3.3112528e-06
2.9623109e-06
3.6359929e-06
4.6457808e-06
2.8708725e-06
3.4546742e-06
2.1337660e-06
3.8829189e-06
3.0466770e-06
3.4043728e-06
2.8776267e-06
2.3539956e-06
3.6678236e-06
4.2096508e-06
3.4382294e-06
4.1053599e-06
2.6880241e-06
4.3985760e-06
3.2772850e-06
3.0019685e-06
5.0471494e-06
3.6166855e-06
3.1721377e-06
2.8003512e-06
3.6871249e-06
4.2949587e-06
3.1467162e-06
3.5191706e-06
2.2359377e-06
2.9009386e-06
2.5036516e-06
3.0552028e-06
3.8763847e-06
5.4534876e-06
3.2279747e-06
2.9457469e-06
2.4163078e-06
3.0417477e-06
2.2701813e-06
3.0818144e-06
3.0405211e-06
3.4681123e-06
2.6794510e-06
3.1965772e-06
3.2398648e-06
3.5997498e-06
3.9100455e-06
3.5564162e-06
2.2743652e-06
2.5873810e-06
3.5131500e-06
3.3117847e-06
2.9770113e-06
2.6678460e-06
3.1075388e-06
3.1217294e-06
1.5159970e-06
3.2991720e-06
3.1987613e-06
3.5067551e-06
3.4248137e-06
3.5561368e-06
2.9779198e-06
2.9177711e-06
3.5978926e-06
3.1531008e-06
3.2707894e-06
4.3166574e-06
3.0055473e-06
3.8416706e-06
2.7560097e-06
3.8184949e-06
3.6603469e-06
2.3111184e-06
2.6171967e-06
3.1558766e-06
2.8459433e-06
3.0270785e-06
3.8386456e-06
4.2843722e-06
3.7156262e-06
3.0570973e-06
3.2834153e-06
2.4763526e-06
3.3187903e-06
3.1573688e-06
2.2829968e-06
3.7039354e-06
3.1920590e-06
2.6518587e-06
3.4241466e-06
4.0342484e-06
3.1228683e-06
3.3439762e-06
3.2089652e-06
3.2732607e-06
3.1806153e-06
2.7098195e-06
3.2617295e-06
3.5472144e-06
2.7031069e-06
2.8250734e-06
3.1975169e-06
3.7729776e-06
3.3026940e-06
3.5957487e-06
3.9365082e-06
3.6233487e-06
2.6211169e-06
2.7086280e-06
2.4731225e-06
3.3700207e-06
2.8175716e-06
3.5504104e-06
3.5378107e-06
3.2156988e-06
3.4230693e-06
2.9456039e-06
3.3580322e-06
3.9231472e-06
3.4742372e-06
3.1021627e-06
4.4918925e-06
3.5601693e-06
2.3408340e-06
3.5773762e-06
2.7992833e-06
3.2943335e-06
3.4795735e-06
4.3784007e-06
3.9999709e-06
3.6245567e-06
3.2096136e-06
3.5136597e-06
2.9587027e-06
3.2322669e-06
3.3545766e-06
3.3716053e-06
3.8999219e-06
3.6910506e-06
2.8330710e-06
3.7097593e-06
3.0815997e-06
3.0853714e-06
3.8067622e-06
3.1859859e-06
3.9511001e-06
4.2198576e-06
2.8803747e-06
3.5017190e-06
2.5423606e-06
1.8916764e-06
2.3352238e-06
3.2792739e-06
3.3564941e-06
2.5799757e-06
3.2924261e-06
3.0719657e-06
3.1762877e-06
3.0994247e-06
2.8707252e-06
3.4340615e-06
3.8006638e-06
3.7155344e-06
2.7550527e-06
3.2904613e-06
3.1149584e-06
3.9355532e-06
2.9100363e-06
3.3712913e-06
4.1250314e-06
3.6021670e-06
3.9053903e-06
3.5498906e-06
4.0168579e-06
3.3700721e-06
2.8704756e-06
3.0782603e-06
3.1346492e-06
4.3936620e-06
3.0131323e-06
4.1376179e-06
2.3349755e-06
3.2982032e-06
3.2249611e-06
3.0053475e-06
4.0779933e-06
3.4655427e-06
2.7194694e-06
2.3482662e-06
2.2501870e-06
3.2094169e-06
2.6471103e-06
4.7265080e-06
3.7209727e-06
3.3853530e-06
3.7963234e-06
3.3882700e-06
2.7769834e-06
3.8139151e-06
3.5667767e-06
4.5457928e-06
3.9487190e-06
3.3523668e-06
3.5446149e-06
3.3186227e-06
3.6968561e-06
4.3613013e-06
4.4321810e-06
2.3102809e-06
3.4982104e-06
2.5530960e-06
3.4062593e-06
3.8618186e-06
3.4182031e-06
2.0663113e-06
3.3547103e-06
3.1629590e-06
2.8109939e-06
2.7905837e-06
3.9135625e-06
3.2253015e-06
3.2444600e-06
3.1175164e-06
3.0251490e-06
3.6995386e-06
3.0960339e-06
3.5977414e-06
4.4521139e-06
4.1567955e-06
6.0033085e-06
3.8961066e-06
3.0308840e-06
1.9264787e-06
4.7104850e-06
3.2050621e-06
2.6377554e-06
4.1722878e-06
2.2317540e-06
3.9285715e-06
3.4501159e-06
3.7934619e-06
4.0870486e-06
2.0966636e-06
3.3551994e-06
2.6923933e-06
2.5729187e-06
3.3905467e-06
3.2357541e-06
3.1115608e-06
3.2642668e-06
3.0807817e-06
4.1499038e-06
2.1437388e-06
3.8094015e-06
3.4712191e-06
3.4052425e-06
3.2739340e-06
4.1369863e-06
3.1498712e-06
3.7311454e-06
2.9787154e-06
2.8667680e-06
3.8597423e-06
3.1946865e-06
4.6533087e-06
2.7380781e-06
3.2997928e-06
2.8261306e-06
2.9011910e-06
4.2998508e-06
4.0410146e-06
3.8725502e-06
3.5766584e-06
3.1966142e-06
3.0214485e-06
3.0932167e-06
2.0564835e-06
2.1188687e-06
3.3118242e-06
3.9236606e-06
3.2316193e-06
4.0508867e-06
3.4994946e-06
3.1034142e-06
3.8998073e-06
2.7863960e-06
2.7200044e-06
4.0413524e-06
3.6950601e-06
2.3151820e-06
2.7542344e-06
2.9430889e-06
3.3827466e-06
3.1553616e-06
4.3815130e-06
3.0653021e-06
3.9108695e-06
3.2968085e-06
3.3505730e-06
3.7526793e-06
3.7627042e-06
3.8317221e-06
5.0647077e-06
2.9344876e-06
3.2039045e-06
3.2931027e-06
4.1901471e-06
2.5607330e-06
4.6624496e-06
3.1693398e-06
2.6793334e-06
4.7337412e-06
3.7330826e-06
3.4213833e-06
3.5675316e-06
3.2110131e-06
2.9030195e-06
4.0531236e-06
5.9164213e-06
3.4063291e-06
3.4056197e-06
3.2698399e-06
2.5781185e-06
3.8420926e-06
3.7615389e-06
3.1341076e-06
3.1314926e-06
3.3559409e-06
3.3372037e-06
2.7152639e-06
4.5385473e-06
3.7168866e-06
3.9226206e-06
4.0904233e-06
3.4911616e-06
3.7025502e-06
4.1547069e-06
3.3657077e-06
3.5516723e-06
2.6608595e-06
3.3251358e-06
2.4869159e-06
3.5760356e-06
3.2771841e-06
3.7063910e-06
3.0571266e-06
3.4999887e-06
3.1631685e-06
2.2722090e-06
3.7836990e-06
3.8534145e-06
2.7558117e-06
4.1083608e-06
3.1048714e-06
3.0599715e-06
3.6278782e-06
4.3161326e-06
3.3166025e-06
3.3379395e-06
4.2052402e-06
4.5231759e-06
3.0872573e-06
3.3292897e-06
3.5463434e-06
3.2069554e-06
3.1918576e-06
3.2909409e-06
4.5224301e-06
3.1400025e-06
3.6248628e-06
3.3322287e-06
3.2747078e-06
2.9080250e-06
3.0465756e-06
3.1386510e-06
3.7475384e-06
4.8980869e-06
4.0763457e-06
4.1052654e-06
4.4492585e-06
3.4557895e-06
4.6993200e-06
2.6177377e-06
4.0402106e-06
2.8844802e-06
3.6703570e-06
3.6553033e-06
4.2185620e-06
5.3830267e-06
2.3177106e-06
3.5153887e-06
4.3730724e-06
3.4260154e-06
3.1374641e-06
4.3531095e-06
3.6326317e-06
3.8588355e-06
3.5571907e-06
3.2759990e-06
3.8231192e-06
2.3544160e-06
4.4871872e-06
2.2022987e-06
3.0286633e-06
4.0546402e-06
2.6350233e-06
4.3271471e-06
2.8026259e-06
3.5127616e-06
3.3045806e-06
2.8601162e-06
1.7615160e-06
4.1625794e-06
3.3349920e-06
3.5435783e-06
3.4938191e-06
3.2121350e-06
3.5337405e-06
3.9176784e-06
3.1193078e-06
2.9293180e-06
0.0000000e+00
3.2719813e-06
3.4960187e-06
3.1838379e-06
2.3475438e-06
4.7776684e-06
3.9444567e-06
4.5922411e-06
3.6021461e-06
2.9286707e-06
3.7841417e-06
5.2241253e-06
3.2881985e-06
2.4964847e-06
3.6245515e-06
2.7813010e-06
3.5981891e-06
4.4558301e-06
2.8030809e-06
3.7483017e-06
2.5176139e-06
4.7632034e-06
3.6185825e-06
6.0562402e-06
3.0669121e-06
3.3045897e-06
2.2988111e-06
3.1628826e-06
3.7469254e-06
5.2008850e-06
4.8087641e-06
3.4990712e-06
3.6284964e-06
3.1043749e-06
3.3737876e-06
3.0587998e-06
4.3399200e-06
3.3147408e-06
2.6056452e-06
2.3109390e-06
5.4119782e-06
2.8958227e-06
3.3509780e-06
3.1992586e-06
1.9006184e-06
4.1033377e-06
3.7885181e-06
3.3285369e-06
3.6201741e-06
3.8241988e-06
3.2896580e-06
3.6061986e-06
4.3835657e-06
2.6905041e-06
3.7152486e-06
7.9937199e-06
3.8734688e-06
4.2950001e-06
3.8202547e-06
2.5593229e-06
4.2079814e-06
4.0662962e-06
3.0460235e-06
3.1290638e-06
3.1419672e-06
3.6487031e-06
4.6939012e-06
4.6068899e-06
3.2891996e-06
3.5371409e-06
3.5329574e-06
3.2217313e-06
8.0212885e-06
3.3962217e-06
3.8906746e-06
3.2267126e-06
3.9198248e-06
3.4337684e-06
3.5293165e-06
4.6477048e-06
3.5374492e-06
2.8905579e-06
3.3464923e-06
3.9030720e-06
3.4331376e-06
2.4793139e-06
2.9264020e-06
3.2588518e-06
2.7784017e-06
6.0784459e-06
3.4817963e-06
5.5577957e-06
4.1113367e-06
2.6252262e-06
3.1707725e-06
2.7172782e-06
3.6269589e-06
2.8058519e-06
3.9691631e-06
6.0109573e-06
4.7450835e-06
4.6456644e-06
2.1487026e-06
3.3919357e-06
3.8118815e-06
3.2597015e-06
3.2288799e-06
4.3613718e-06
3.7060852e-06
2.9358137e-06
2.5736701e-06
2.2116672e-06
3.1030534e-06
3.1674317e-06
3.8824778e-06
3.9144634e-06
3.4453749e-06
4.0890563e-06
2.9844630e-06
4.1597823e-06
4.1227204e-06
3.2660591e-06
2.7926694e-06
2.7604081e-06
3.1361621e-06
3.1375137e-06
3.5046141e-06
2.7186268e-06
3.1952775e-06
2.7772974e-06
1.4244168e-06
3.1407947e-06
3.6546453e-06
3.4557918e-06
2.8250013e-06
2.7585202e-06
2.4358644e-06
2.9307298e-06
3.3523168e-06
2.8633021e-06
2.9056598e-06
3.8736398e-06
2.9303471e-06
3.1469383e-06
3.0610627e-06
3.0723463e-06
1.9003921e-06
1.8485158e-06
4.4756093e-06
2.2997713e-06
4.3492255e-06
4.1272274e-06
3.9513229e-06
STRAIN_ENERGY 1 2292  float
2.4199652e+04
5.3764562e+04
2.8395811e+04
3.0008982e+04
1.3570433e+05
8.0385656e+04
2.1204022e+05
1.5788491e+04
4.4929652e+04
3.5001164e+04
2.8654773e+04
1.7765309e+04
2.4956386e+05
3.6539100e+05
2.3877627e+05
6.1505586e+03
1.4293844e+05
6.2980617e+04
1.5119445e+05
7.3055815e+03
5.7011694e+03
1.1886660e+05
4.0721838e+05
5.2445203e+04
1.0680758e+04
2.2605867e+03
1.9944648e+04
4.1981836e+04
1.3450288e+05
3.4538241e+05
1.2614195e+05
2.7170472e+05
4.6270005e+03
9.8824398e+04
7.7742203e+04
1.1042635e+05
1.3804901e+03
2.1902623e+04
3.8781081e+05
1.1014870e+04
2.0870288e+05
3.0582184e+02
3.3911375e+04
7.7597974e+03
6.3319746e+04
1.6647612e+03
7.3803266e+04
9.7742820e+04
8.3094580e+03
5.9864807e+02
8.4636143e+03
1.8720370e+02
5.5363367e+02
1.8170133e+03
5.1401748e+03
1.4203251e+04
2.6595730e+04
9.8274664e+04
5.3218052e+03
1.7912549e+03
7.6048393e+01
1.7458109e+05
2.6197524e+03
1.1398314e+03
3.9318616e+03
1.6131578e+02
8.0423419e+02
3.1174559e+05
1.2700574e+02
1.7906943e+03
1.2761471e+03
3.0839215e+02
1.9109034e+05
2.2014331e+02
6.8840227e+04
2.0893036e+02
1.5315923e+05
1.0726585e+02
8.9242289e+04
7.8936802e+03
8.1721704e+02
2.2887837e+02
2.5408818e+04
4.2262509e+02
9.6447797e+02
9.8378532e+01
1.8675052e+02
3.8386461e+04
3.4391016e+02
7.3160117e+04
2.9777837e+03
3.3447241e+02
9.3881058e+01
1.3002591e+02
6.8358022e+03
1.2088627e+05
1.2375537e+02
5.9754694e+05
2.6378952e+02
1.0837743e+02
1.2995747e+02
8.2983925e+01
8.7796570e+04
4.8285175e+05
2.6503298e+03
6.7573511e+03
4.0809931e+05
9.1601143e+01
1.1858025e+02
6.0418964e+01
6.6254288e+01
1.9065258e+05
2.9457663e+02
2.1746252e+04
1.6109326e+02
5.8508740e+03
7.3160999e+02
8.0208473e+01
9.3965586e+04
1.1494947e+02
2.9137897e+02
7.4224785e+01
8.7607628e+01
5.6404736e+01
3.6366059e+04
3.7159008e+04
7.6614082e+01
5.7460638e+02
1.1325411e+03
6.9929775e+03
5.9878742e+01
2.3954848e+02
9.4706268e+01
1.2409492e+05
1.9697618e+02
5.4233387e+01
5.2248249e+01
2.1352094e+04
4.4841259e+01
7.4776196e+02
7.8161553e+03
9.7392685e+01
4.8488873e+01
2.3775877e+05
7.9030998e+01
3.3757570e+04
5.0962406e+04
4.1458282e+01
2.6102090e+04
4.9503960e+01
1.2042030e+02
4.9232855e+04
4.4788879e+01
1.6757063e+02
4.6846117e+04
1.3391414e+05
2.8624720e+01
6.5158974e+01
4.2691777e+03
1.6152621e+03
7.6026044e+05
2.6556704e+01
1.9991872e+02
5.1565049e+03
8.9073586e+01
2.2621613e+01
2.3998145e+03
5.3753281e+01
6.8417427e+01
7.6292100e+03
3.1312148e+04
2.0378150e+04
3.2520550e+01
4.4500441e+04
9.2205322e+02
6.4407477e+04
1.2617345e+05
2.2410037e+04
3.4341545e+01
1.3201771e+01
8.2495369e+01
4.5482836e+04
1.4474878e+04
2.9961246e+02
3.0733173e+01
6.5995499e+01
6.9554000e+05
5.8074658e+03
9.1778252e+01
1.8634670e+03
5.1754375e+01
2.6581732e+02
4.9588037e+02
2.1157518e+02
2.5201523e+01
2.2207500e+03
2.6610516e+05
6.2934746e+03
8.5413348e+02
1.0634183e+03
6.7209053e+01
1.7653502e+06
1.4156304e+03
4.4056945e+04
1.0655244e+01
1.7054565e+06
3.6315704e+01
4.0057941e+01
7.3979660e+01
1.3393179e+01
1.8987610e+02
4.4090191e+01
4.1652643e+02
4.4905508e+03
1.0118080e+03
3.2728547e+05
1.3146785e+02
1.1437371e+02
1.8167532e+01
8.8037457e+02
2.9262347e+02
2.2385452e+03
3.3788105e+01
7.6022329e+00
1.4747203e+04
8.2641077e+02
5.1794743e+01
2.9312067e+02
3.6962170e+02
7.6648810e+02
9.5477734e+00
5.7508789e+02
4.0254063e+01
9.4179573e+01
1.8918417e+03
1.0594953e+01
5.1887726e+01
4.6385651e+02
3.9894867e+02
2.4182095e+02
2.1541611e+01
1.7120781e+02
3.0780836e+01
4.0123283e+01
4.1189972e+01
1.0961839e+02
2.8126657e+02
2.4095291e+01
4.2862967e+02
4.5576714e+01
4.5489521e+00
1.1376442e+03
3.8409802e+02
2.4866908e+02
3.6042747e+01
1.0159811e+01
2.6620746e+02
6.5142311e+01
1.4484044e+02
4.1529410e+02
2.4035618e+01
2.2303181e+01
1.5561143e+02
7.0368141e+01
2.8437801e+01
5.8135653e+00
8.3240204e+00
2.6856768e+01
4.3800541e+01
3.5722418e+02
3.0816123e+00
5.1428848e+01
1.0715038e+01
2.3186153e+02
6.3397626e+02
2.3865646e+02
1.1006010e+02
2.7999338e+01
2.0294057e+02
1.6339717e+02
7.7229004e+01
2.8350002e+01
6.7615609e+00
2.6010318e+00
1.8841877e+01
6.5688721e+01
2.7745044e+02
1.5064035e+01
1.1963625e+02
8.6639318e+00
2.7188641e+02
1.1092595e+02
4.1441193e+00
3.1388937e+01
6.5771606e+01
7.9031700e+01
3.5589077e+01
2.2326307e+00
1.1376228e+01
1.5689444e+02
2.0440376e+01
8.8314796e+01
4.2385235e+01
9.8980932e+00
8.8859568e+00
1.8118141e+02
2.0531734e+01
9.9078018e+01
1.8584967e+01
6.4918869e+01
4.9137260e+01
1.1969434e+02
3.0540066e+00
2.0266602e+02
4.2727785e+00
1.5281059e+01
2.4015108e+01
9.1307655e+01
4.4379158e+01
1.5723900e+01
2.2045036e+01
1.8122423e+01
1.5244726e+01
1.2321606e+02
7.2031418e+01
3.3810296e+00
6.1767941e+01
9.9192495e+00
1.0390538e+02
2.8258726e+01
4.0854859e+00
1.2869595e+02
1.5377271e+01
7.6645002e+00
7.3054596e+01
5.1973906e+00
9.3219976e+00
3.9834904e+01
5.3612518e+00
5.2945553e+01
1.7300650e+01
4.3784485e+00
2.8524677e+01
1.6181824e+01
2.8938299e+01
7.7003965e+00
4.0811378e+01
9.6019341e+01
1.7200512e+01
1.1293892e+02
3.5348381e+01
6.8631806e+00
3.7511413e+00
6.4150024e+01
3.9064178e+01
1.1814197e+02
4.2966225e+01
1.3977698e+01
7.3441553e+00
4.9535652e+01
7.2555265e+00
2.9133669e+01
8.7448502e+00
1.6239325e+01
1.7110176e+01
4.0595751e+00
4.0111828e+01
2.2547655e+01
5.9089184e+01
4.1782250e+00
1.2971903e+01
1.1184396e+01
1.0043983e+01
7.9514412e+01
5.4254307e+01
1.2395505e+01
7.5687782e+01
3.3812538e+01
4.7456352e+01
5.0215411e+00
6.9804764e+00
5.2171288e+00
1.6015930e+01
4.2906203e+00
7.0062494e+00
1.0691850e+01
2.5165560e+01
3.0088400e+01
5.0173103e+01
2.2782980e+01
2.1339233e+01
1.6691746e+01
5.4918003e+00
1.1674453e+01
5.4710327e+01
1.1268768e+01
2.8636951e+00
1.1002235e+01
1.5116399e+01
4.5612797e+01
7.7126152e+01
3.2653153e+00
2.4636972e+01
2.7324307e+00
2.8725855e+01
2.6022421e+01
6.9938402e+00
3.6110832e+01
3.6534714e+01
1.3753615e+01
8.7890024e+00
3.7060769e+00
3.4467236e+01
3.9041116e+00
1.6931454e+01
2.8019190e+00
2.0306421e+01
2.8161772e+01
5.7867031e+00
2.3733818e+01
3.4745056e+01
1.8599703e+01
4.0569145e+01
1.2256649e+01
4.5414249e+01
2.5835779e+01
1.9249551e+00
2.1562124e+01
1.6545736e+01
5.0548782e+00
1.2681988e+01
2.6609243e+01
2.1681449e+00
1.2821804e+01
1.2553274e+01
2.9613600e+01
3.4376948e+00
2.9871769e+01
1.7963022e+01
2.6313796e+00
8.4920063e+00
2.6681488e+01
5.0275054e+00
3.3695679e+00
2.8876476e+01
1.2877731e+00
3.4081722e+01
1.0355877e+01
2.3681997e+01
8.4211245e+00
3.5871273e+01
2.1868622e+01
1.4537596e+00
3.6144451e+01
1.4148605e+01
2.0603817e+01
3.5057869e+01
1.9378210e+01
3.0492947e+01
2.3825610e+00
1.3092018e+01
1.6992682e+01
6.9033084e+00
8.9277887e+00
3.6196804e+01
3.6063263e+01
8.2366486e+00
2.1817419e+01
3.1259567e+01
1.1324012e+00
1.1588204e+00
2.5821224e+01
2.1920774e+01
2.6860519e+01
1.2052577e+01
1.2708941e+01
6.3800721e+00
1.8517138e+00
3.2579498e+01
1.6747284e+01
1.7493917e+01
4.1610432e+01
2.7430614e+01
9.8624582e+00
7.7482738e+00
1.6819004e+01
6.6437640e+00
1.2817555e+01
2.0398491e+01
2.6998592e+01
1.9922596e+01
1.3681579e+00
6.6925270e+01
1.2533266e+01
2.0697954e+00
1.2667962e+01
3.2534778e+00
1.9654509e+01
3.8328533e+01
5.8391987e+01
3.7812767e+01
3.2168338e+00
1.1392154e+01
6.2174404e+01
1.0477195e+01
1.3399358e+01
1.0656164e+01
2.7256271e+01
2.5763283e+01
7.2056618e+00
2.2538069e+01
4.3743443e+01
4.1990900e+00
3.0718996e+01
5.2662544e+01
3.0391762e+00
1.4237697e+01
1.1497836e+02
1.9763336e+01
1.4380785e+01
3.7330769e+01
2.5002792e+01
1.6315810e+02
4.0240116e+01
1.3152894e+01
1.1375093e+01
1.0051836e+01
1.7384529e+01
6.9674606e+00
8.1851969e+00
1.6122576e+01
1.4588875e+01
4.7248727e+02
4.3446407e+00
9.5958969e+01
1.2100188e+01
1.2048547e+03
9.7819271e+00
7.2773354e+01
1.6646870e+02
2.0589279e+01
1.8673637e+01
7.1338964e+00
3.9280344e+03
2.0257662e+01
9.3647490e+00
1.3782315e+04
6.3076138e+01
1.2791220e+02
2.7165964e+01
2.3751743e+01
1.6908760e+01
3.4579262e+01
2.1670973e+04
1.0316159e+04
1.7931258e+05
1.2746512e+01
1.0901285e+01
1.4949367e+01
1.4696314e+06
1.5873335e+01
1.4091186e+05
7.7434821e+00
1.1648182e+06
7.7389252e+02
3.8156605e+01
9.3633881e+01
6.5789650e+05
1.0619154e+01
1.9035986e+01
3.3089081e+01
6.1310158e+01
1.2508213e+04
7.5966034e+01
1.2411917e+01
1.0861830e+05
2.0252514e+01
1.6957293e+01
1.1527402e+05
6.1840897e+01
4.4676975e+01
3.6000759e+01
4.7179590e+02
1.9372351e+01
1.7141588e+01
1.0444264e+01
1.3913423e+01
1.2290108e+02
1.4358109e+01
1.2367429e+05
9.7494774e+01
2.2021111e+03
1.4382681e+01
1.6167204e+01
1.2723404e+04
8.6256148e+04
1.6756302e+01
5.5241402e+01
3.7477413e+01
2.0531971e+04
1.3614248e+01
2.2589928e+01
1.3897806e+01
3.6182224e+01
2.0657663e+01
9.0552246e+01
2.3679669e+02
1.6641567e+01
7.9210901e+02
8.9392204e+00
9.3871002e+01
2.6980859e+02
2.5940168e+01
2.4009512e+01
2.8791300e+05
1.4455953e+01
5.7185819e+05
8.2111957e+02
1.0115188e+05
2.1417591e+01
1.1192771e+02
2.4349134e+01
4.2182556e+01
2.3085279e+04
4.6331131e+01
1.2005987e+02
1.6696033e+01
1.1416681e+03
1.5971101e+01
1.0159158e+03
2.1233656e+01
9.3012119e-08
2.8666023e+01
7.7390247e-08
2.2178256e+04
2.3722383e-07
1.4582824e+04
6.1264629e-22
1.3414293e-21
4.2328628e-07
-2.9192540e-10
-1.4466410e-07
1.3496677e-07
3.0106037e+01
1.1147030e-07
1.4760989e+01
1.8003061e+05
1.5729680e+01
-5.0582727e-08
4.7131024e+02
1.5169574e+01
2.1516418e+04
2.5145380e-07
5.4608840e+04
4.4543850e-07
9.5456657e+01
1.5819617e+02
-5.5046847e-08
2.2102044e-07
1.0787228e+05
-1.1164289e-08
1.9290735e+01
1.9688128e+01
2.7999287e+01
8.9870987e+01
4.1700012e+01
1.8576137e-07
1.8331944e+01
2.7890642e+01
1.0694415e+02
1.9146738e+02
2.6171494e+01
1.8555852e+05
2.4873482e+01
2.0114462e-07
-1.6303244e-07
2.6019343e+03
4.6300034e-08
5.6620746e+02
1.9395037e-07
2.4951066e-07
6.0119576e-09
1.6232025e+01
1.7087193e+02
3.4982040e+01
1.5562708e-07
1.2097074e+04
4.7458445e+04
2.4189556e+01
7.6077049e+01
3.9447931e-07
1.6386306e-07
5.4612663e+01
3.5411369e+01
3.0824746e+04
2.8243900e+01
1.1695248e-07
1.1727714e+04
2.6307989e+01
1.3933116e+03
1.6782527e+02
1.3091281e+05
1.8764818e+01
2.9044144e+01
2.9181757e+02
4.5851375e+04
2.7113901e+02
2.7583712e+05
-1.6206462e-07
1.9402984e+05
1.5019445e+03
5.9209356e-07
1.0704600e+03
4.3643906e+01
6.0852043e+01
-8.0836841e-08
2.5601729e+03
1.5119015e-07
3.6466679e+01
1.9202399e-07
-5.0323798e-08
1.9225826e+01
2.7251060e+01
-7.9817745e-08
8.7489477e+04
2.6569140e-07
2.6458366e+01
4.8854877e+01
1.7960269e-07
1.2155686e+04
7.1790679e+03
5.4989403e-08
1.7007710e+03
3.5558858e-07
4.2093376e-08
4.6495084e+02
2.5255941e+01
-5.6244495e-08
2.6043912e-07
1.8831979e-07
1.3093623e+05
1.4669079e-07
1.3363872e-07
5.9211735e+01
3.8140190e+01
7.8781758e+04
1.8568123e-07
8.1062500e+05
9.0943658e-08
6.6370247e+01
1.2751144e-07
2.0473790e+02
3.3795887e+01
2.0327625e+01
6.4662256e+05
1.7478411e+05
7.2461865e+02
1.8554661e-07
6.6401562e+02
1.4762435e-07
2.7607937e+03
2.7415862e-07
9.1171761e+01
1.6096680e+01
2.2400826e+01
3.5841904e+01
3.0251957e-07
5.0642629e+04
1.8427613e-07
1.8789392e-07
1.9023743e+02
1.3212297e+04
6.2109756e+03
6.3607822e+01
-1.2985862e-07
-4.7858716e-08
-9.0960746e-08
-8.3442018e-08
1.3512833e+04
-1.7132378e-07
1.8269996e-07
3.6881111e+01
4.7376539e+04
1.6799346e+03
5.6475803e+01
3.0325430e+01
-6.0736461e-08
2.6106747e-07
1.3551104e-07
2.0118982e-08
1.7870039e-07
4.8416332e+01
3.3428039e+04
4.9436146e+01
2.2115652e+05
1.5706655e+05
3.7248177e+01
6.3274531e+05
1.5433358e-07
1.7238636e-07
4.0387596e-07
-1.8292448e-08
-2.2579741e-07
8.6009678e-08
2.3496368e-07
2.0810198e+03
7.0384090e-08
3.4374771e-08
1.0678058e-07
1.2646542e+02
5.9905304e+01
-1.2476580e-07
8.4934728e-22
4.4878452e+01
4.6140215e+04
6.3041725e-08
1.7100771e-07
8.6723763e+01
1.9027922e+02
1.1359703e-07
1.6287197e-07
1.3344869e-07
3.5784524e-07
8.2599328e-08
1.2941814e-07
1.5511318e-07
8.6161087e-08
1.7119272e+02
-6.2513134e-10
6.0735355e+01
6.8950659e+02
9.9061707e+01
1.2578203e+05
1.1357251e+05
7.8095284e+01
-9.9888922e-08
5.0527407e+03
9.4093422e+04
3.8937711e+04
3.5953781e+05
1.1291738e-07
2.2187980e+04
3.3917914e+02
1.8498480e+02
4.3140878e+02
-2.7067840e-08
2.2340631e-08
1.5835981e-07
-1.8888592e-07
2.5654967e-07
1.3026454e+02
6.5055048e+02
-8.2475990e-09
-6.1582817e-08
6.8086815e+01
1.3152491e-07
4.8528037e-08
1.9367559e+03
-5.0302539e-08
1.2472448e+02
1.4193554e-07
4.0166279e-07
5.1856714e-09
2.5353793e-07
-1.5979769e-08
2.6364375e+03
7.9347598e+03
2.5553436e-07
8.7520653e+01
1.6857676e-07
3.5016805e-21
1.0824210e+04
3.0516206e+03
7.8779983e-08
1.1056493e-07
1.5905988e-07
2.4689754e+04
1.3442650e-07
1.8937030e-07
3.9258698e-08
4.6285129e+04
1.7145192e-07
4.4977746e+04
7.9358273e-08
1.6172285e-08
1.2772032e+05
1.5582103e+04
1.4295867e+05
-4.9669286e-08
1.0365538e+02
2.7553650e+05
1.9065320e-07
-1.5205213e-08
1.3060788e+05
8.9754745e+01
1.5150928e+02
1.6335316e-07
1.9489216e+05
8.1065927e-08
-8.2638500e-08
1.9636454e+03
4.5470792e+02
8.2817905e-08
-1.7855766e-09
5.5604062e+05
1.9936235e+02
1.8341116e-07
1.1480850e+04
4.2591113e-09
4.1754706e-08
2.5229613e-07
-2.6061523e-08
2.0366562e-08
-1.3760451e-10
6.5101901e-08
2.7463786e-08
1.5835697e-07
3.7881833e-08
1.0597748e+02
3.0751846e+02
2.1642798e-07
-3.9242636e-08
1.3800885e+02
7.5617024e-10
-4.7336918e-08
1.7479148e-07
4.7772332e-08
2.2613946e-07
-3.0274080e-08
1.7337960e-07
1.0913378e+03
1.2189433e+04
2.2156766e-07
2.8914922e+05
1.5092550e-07
1.5159595e+02
-2.3881529e-07
1.7334638e-07
2.2831114e+02
1.5342299e-07
5.7353759e-08
1.8828557e-21
1.6171016e-07
2.7814444e-08
2.2426314e+02
-1.7167587e-09
-2.1273493e-08
3.9865485e+02
7.9824100e-22
1.3660426e+02
2.6495644e-07
4.0307801e+04
-8.9977217e-09
1.7307221e-07
4.8335277e-08
2.1120014e+04
-1.9286614e-07
2.5625229e-07
5.2194824e+04
2.5487401e-07
8.1673754e-08
1.5192822e-07
7.0165961e+02
-1.4154450e-08
-1.0403819e-07
1.8369784e-07
2.3811792e-08
1.7544141e-07
1.7520068e+03
2.4569309e-07
1.7636133e+02
1.8693557e-07
1.5250927e-07
1.1556352e-07
1.9530061e+02
2.2465665e-08
2.0522323e-07
1.3222545e-07
3.2067447e-07
9.4457540e-08
1.6200624e+03
6.2833429e-08
2.7735663e-09
1.1465599e+05
1.9649714e-21
-1.8877240e-07
5.1155386e-08
5.8008237e+03
4.8054471e-08
1.2016257e-07
2.8925507e-07
1.1902474e-07
1.2043846e-07
1.5846240e-07
5.5842960e-08
-5.6071766e-08
6.5917343e-09
1.2406633e-07
4.5271765e+02
-8.7800387e-08
8.9231367e+04
2.3154368e-07
1.4382462e+03
1.8557484e+02
1.1760967e-07
9.7816127e-08
4.0263615e-07
1.4121059e-07
3.7064438e+04
2.0060986e+04
7.1606372e+03
-2.7995306e-08
1.2862189e-07
1.4890803e-07
1.2118454e-07
4.1215816e+04
3.6496203e-08
2.3132267e-07
2.5912348e-08
2.4608062e-07
9.4174844e-08
7.7090270e-08
2.8595431e-07
8.2405187e-08
5.6004563e-08
9.4303878e-08
-9.0628625e-08
-6.4551102e-08
-2.1687606e-08
3.5272802e-07
1.7262388e-07
3.3532420e-08
-9.0500478e-08
5.9770020e-09
4.4948477e+04
6.5667102e+02
1.8465681e+05
2.0554155e-07
2.8028484e-07
1.9496178e+02
8.3610416e-08
2.1725616e-07
2.2339120e-07
3.4755342e-08
-1.8942272e-08
4.0704936e-07
-1.3001356e-07
3.1918734e-07
-1.7213805e-08
-1.4441873e-08
8.2681687e-08
3.9064531e-08
7.7731702e+02
1.8889122e-07
-9.1504567e-08
4.0248511e-07
-3.6730153e-08
5.5855327e-07
-1.0892782e-07
1.3744582e-07
8.5693038e-08
1.9711868e-07
2.2271141e-07
4.0468127e+02
9.5083948e-08
1.2312070e-07
1.0194657e-07
1.2923715e-07
1.1342438e-07
5.7581219e+04
1.7376502e-07
2.9966782e-10
1.5775043e-08
1.9842466e-07
1.9675194e+03
7.8097045e-08
-2.0795781e-07
1.0951344e-07
1.0147468e-07
9.6489813e-08
5.7373735e-22
4.1999031e-09
1.4403274e-07
1.5741821e+04
6.6826630e-08
8.6780410e-08
-8.9850147e-08
5.8264842e-08
1.6634556e-07
-2.2549027e-07
8.0097418e+02
6.7032317e-08
2.4446354e-07
1.4901391e+05
5.7580458e-08
4.0854928e-07
9.5250662e-08
2.0772494e-07
8.3005818e-22
1.0389864e-07
6.7724301e-08
1.6404971e-07
1.7247807e-07
1.5088668e-07
9.4276629e-08
-6.6557362e-08
1.2825696e-07
1.2772648e-07
1.0365792e+03
1.1341987e-07
1.3594216e-07
1.6691027e-07
2.7631228e-07
2.7030293e-07
9.5836960e-08
1.4790024e-07
-1.2736463e-07
-2.0019442e-09
-9.6048991e-09
6.1349823e-08
1.7192052e-07
8.8831463e-08
1.0489953e+04
-4.2533930e-08
2.2074703e-07
2.0505999e-09
-8.2238745e-07
2.1702387e-07
-6.6960375e-08
6.9814142e-08
4.1999746e-07
-2.1535204e-08
-9.2844331e-08
2.0028652e-07
2.9550656e+04
2.0322720e-07
-8.9471641e-08
-1.2437037e-07
-4.6658801e-08
5.9307144e-08
1.4203611e+05
3.0496081e+05
3.0743277e-07
4.2454086e-08
7.1623909e-08
2.1147487e-07
-1.4368703e-07
-5.8830999e-08
-1.9031013e-07
1.7439710e-08
1.5549464e-08
7.9907429e-22
4.7088286e-22
3.7298986e-07
2.6094651e-07
-1.0786756e-08
1.6613234e-07
1.0428097e-07
2.1649048e-07
1.6788230e-21
3.1718199e-07
-1.3213878e-07
8.0690135e-08
1.9856138e-07
-8.3733845e-08
2.2808865e-07
2.4374555e-07
-8.0378854e-08
1.5250845e-07
2.9920233e-07
6.7693406e-08
4.8300151e-08
1.8201027e-07
9.5468558e-08
8.5188326e-08
1.6824978e-07
2.3257662e-07
3.6166419e-08
-9.7067385e-08
2.6870300e-08
-1.5030464e-07
1.4373875e-07
1.9618612e-07
2.7705777e-08
3.1784278e-08
-7.2086039e-09
1.4146036e-07
6.0469084e-08
5.0278757e-08
8.9309239e-08
1.9384261e-07
9.3065431e-08
1.1775897e-07
1.5822889e-07
4.3524719e-07
1.4426128e-07
2.2570082e-07
3.4213521e-08
2.3886801e-07
2.0805317e-07
1.1086739e-07
7.0996535e-08
1.4759928e-22
7.5878461e-08
4.7722999e-09
1.1799588e-21
7.4499503e-08
1.7234971e-07
1.8111842e-07
4.8790383e-22
-1.0942572e-07
2.3940069e-07
-1.2467930e-07
-7.6336093e-08
1.2239714e-07
2.9518830e-07
1.1074061e-07
2.2958552e-08
3.0353945e-07
2.9002086e-07
1.6462955e-07
2.2508078e-07
1.4371676e-07
1.0274378e-07
-5.6987847e-08
-4.5248569e-09
4.1171059e-08
1.3392594e-07
2.0681252e-07
1.0818297e-07
5.5513620e-08
-7.4813343e-08
5.8196850e-08
9.7410734e-08
9.4415922e-22
2.0552316e-07
1.4772552e-07
-9.6326424e-08
7.2183596e-08
-1.0480338e-07
3.5856598e-08
1.0305056e-08
1.0342385e-21
1.2545098e-07
3.2102761e-08
1.1837003e-07
4.5766829e-08
-4.7078423e-08
-4.0709576e-08
-1.0779042e-07
-7.9643613e-08
2.9688397e-07
3.2869112e-09
6.5808926e-08
1.6904455e-07
2.3362809e-08
2.4669458e-07
1.6129707e-07
2.0175705e-08
9.4056948e-22
1.4636117e-07
1.0039991e-07
1.2985393e-07
1.1522872e-07
1.2031133e-07
1.2238674e-07
8.8445297e-08
1.7813382e-07
1.6636639e-07
1.1499476e-07
1.1524768e-07
2.0719440e-08
1.8125057e-07
1.2788790e-07
9.9410514e-08
7.3564978e-22
-1.9581550e-07
-5.1072817e-08
4.1384254e-08
3.7236472e-07
1.7548025e-07
5.3150199e-08
1.5937635e-08
8.1135433e-08
9.7961903e-22
3.1608824e-08
6.2486926e-08
6.7522038e-08
3.0719949e-08
7.5544001e-08
-7.8978260e-08
3.4818135e-07
1.6299943e-07
5.1381356e-22
3.6700140e-08
2.2763649e-07
3.0877558e-07
4.0895408e-08
5.0072828e-08
5.1056485e-08
1.1630760e-07
-6.3444531e-08
7.8158706e-08
1.9640115e-07
9.2636498e-08
2.8267186e-07
1.2814337e-07
2.8131399e-07
1.3107821e-07
1.8481140e-07
2.1281897e-07
5.1794714e-22
2.7286310e-07
8.3257106e-08
-7.6515910e-08
2.6997876e-07
2.6362002e-07
5.2305476e-09
3.0558692e-08
2.0051161e-07
1.0526478e-21
1.9767018e-07
1.2946697e-07
1.8685303e-07
6.3248201e-08
9.7728481e-08
-7.3936420e-08
-2.8965232e-08
1.7905984e-07
-1.4614496e-08
1.4380079e-07
1.7312784e-07
2.9955174e-07
8.2124025e-08
2.9825813e-07
1.3066476e-07
8.9988115e-09
0.0000000e+00
1.8845628e-07
7.6417180e-08
7.2227749e-08
7.5001630e-08
3.8333631e-08
9.6157988e-09
3.8696033e-08
-1.6168329e-07
1.0904380e-07
1.9566279e-07
1.1038304e-07
4.6578460e-08
6.1588715e-08
4.4567486e-07
8.8329621e-08
1.6726425e-07
4.2230837e-22
1.7505283e-07
-1.3486184e-09
2.7089948e-07
9.7193926e-08
1.4607115e-08
6.7804116e-08
4.7633812e-08
1.0863981e-07
-2.5410097e-08
-9.9868750e-08
2.0826670e-07
8.2910255e-08
3.4032279e-08
-2.5109841e-07
1.5845907e-07
1.4331897e-07
1.5292153e-07
1.2199411e-07
1.2659325e-07
-1.2029539e-08
4.7741395e-08
5.3290461e-07
2.9160582e-08
1.5926462e-07
7.1176082e-08
1.6197381e-21
3.5295685e-07
1.7666908e-07
-1.3703895e-07
7.9023984e-08
-9.7302461e-08
2.4012539e-07
2.6293998e-07
3.0325467e-07
1.4591420e-07
-9.9825712e-09
2.2053018e-07
-1.0762236e-07
2.5373262e-07
-7.0986964e-08
2.8212600e-07
4.7903951e-22
1.1585395e-07
1.5456591e-07
-2.3412002e-07
2.3894813e-07
-3.0289893e-08
-7.8436194e-08
1.3899552e-07
4.4692012e-08
2.0572973e-07
-5.2072199e-08
3.6099067e-07
1.8810334e-07
1.7020128e-07
8.1626027e-08
-1.8689721e-07
4.8428001e-07
1.2121799e-07
1.1909435e-07
1.7326595e-07
1.5338441e-07
1.3443806e-08
3.7937003e-22
-1.4246918e-07
5.6870832e-08
4.3103444e-07
-3.7477363e-08
1.4784992e-07
4.2865710e-07
-8.2631793e-08
4.7184027e-08
1.3817021e-07
2.8452990e-07
8.4703295e-22
4.0984850e-07
1.0462571e-07
2.3441523e-07
2.1539981e-07
2.0644909e-07
1.4391257e-07
3.6266344e-22
2.2959038e-07
1.2962040e-07
-1.4977038e-08
1.2141113e-07
3.5191181e-07
3.5781891e-08
8.4679762e-08
1.4832180e-07
1.7509380e-07
8.4252981e-08
2.0650587e-08
8.2301987e-08
1.7001419e-07
7.1813815e-08
3.0648422e-07
1.1775100e-07
1.6051406e-07
9.0121432e-08
1.0807271e-07
1.0203733e-08
1.5722642e-07
1.1259683e-07
3.0470928e-22
1.4885627e-07
4.8017871e-08
-4.6431659e-08
-1.3916114e-07
2.1312009e-07
2.0625798e-07
1.6729518e-07
9.4606309e-22
1.7214934e-07
-1.7801742e-08
-1.0298534e-07
1.4798030e-07
1.0658217e-07
1.3024766e-07
2.0756962e-08
1.2462208e-07
2.3254516e-07
-3.2998531e-07
-2.2707431e-08
-2.5392348e-08
2.7078995e-08
2.2016960e-07
6.6294461e-08
7.6198795e-08
1.2347188e-07
1.4162111e-08
-4.6849109e-08
1.8370480e-07
6.8664576e-09
2.7249399e-07
1.2406177e-07
1.4992783e-09
1.9983629e-07
1.3476995e-07
1.3042079e-07
1.0815911e-07
9.6589254e-08
-5.7792580e-08
3.3750587e-07
1.1668232e-08
2.8487551e-07
3.5793569e-08
6.3689287e-22
-7.6222271e-08
2.6223125e-22
2.5910126e-07
-4.9139420e-08
1.2840783e-07
-1.8277333e-07
1.7558789e-07
-2.5755446e-07
-9.4673688e-08
-4.2503959e-08
8.6061145e-22
8.4551859e-09
-2.0039698e-07
1.4227720e-07
1.2254556e-07
2.3784839e-08
1.1752329e-08
1.0584229e-07
3.9400305e-07
7.8769069e-08
1.1306074e-07
1.1708953e-07
1.9830665e-07
1.1458514e-07
0.0000000e+00
1.0304101e-07
3.4262115e-08
2.2100606e-07
7.4783564e-08
-2.1089008e-07
2.7407378e-07
-7.0466456e-08
1.2731741e-07
-1.5312846e-08
1.6537980e-07
1.6145815e-07
1.0857019e-07
3.4450775e-07
1.7977543e-07
-3.8603428e-08
1.5190730e-07
1.4675159e-07
4.7331621e-08
-7.6233185e-08
5.4105058e-08
2.2909983e-07
4.1289204e-07
-6.7042971e-09
2.0759362e-22
2.4426841e-08
1.6476565e-07
8.5387960e-08
3.2045077e-07
2.1818479e-07
1.3280194e-07
-4.2435314e-08
8.1312216e-08
1.9364136e-07
1.0072746e-07
-1.9551636e-07
-1.6141853e-07
1.6389144e-07
7.6571446e-08
1.4925084e-07
3.7341285e-22
1.0476197e-21
4.6903502e-08
2.2557772e-07
1.0855768e-07
2.3648310e-08
3.2908349e-22
-4.5618151e-08
-1.0474848e-09
3.0954715e-07
4.8824484e-07
-2.8562779e-08
4.6052898e-07
-1.0193111e-07
2.0137564e-22
1.0572832e-07
-1.3222574e-07
4.3673762e-07
2.9607244e-07
5.6120479e-07
1.0796834e-07
1.5097949e-07
2.2782783e-07
3.0035801e-07
3.8676518e-07
1.9271583e-07
3.2803083e-08
5.1923521e-08
1.8142958e-07
-1.4230714e-07
5.1150494e-07
5.5788760e-08
-1.1112408e-07
2.6556339e-09
4.6523667e-07
-5.9114686e-08
9.9135448e-08
1.6672482e-07
1.3138019e-07
3.7554125e-07
4.8207532e-08
2.6040942e-07
1.3034904e-07
4.8070255e-08
4.0837254e-08
9.9929196e-08
2.2167911e-21
4.3778272e-08
3.1232904e-07
3.5654844e-07
4.5191140e-07
1.8353927e-07
-5.6590057e-09
2.2010278e-07
3.4250959e-07
6.3578455e-08
1.9078385e-07
1.6277048e-07
1.8937030e-07
2.6245775e-07
-5.7336202e-10
-1.4486257e-07
-2.3140810e-08
-3.1282141e-09
2.1792789e-07
1.5566641e-07
2.1832841e-07
1.4364416e-07
1.5170569e-08
1.9984947e-07
2.3042118e-07
3.4321829e-07
6.0716872e-08
2.4824345e-07
6.9371325e-08
-4.3380826e-08
1.1512325e-07
1.7104476e-08
2.2818739e-07
-2.8551665e-07
6.5439707e-08
7.6227046e-08
-1.5531248e-07
1.3082771e-07
1.0123982e-21
6.1657737e-08
1.8194706e-07
5.4417619e-08
1.9683766e-09
7.3954673e-08
-2.3724800e-07
4.9901990e-07
1.7438863e-07
9.3138759e-08
2.1885590e-07
-6.8063372e-08
3.9137895e-08
7.8901330e-08
-5.2849721e-08
-2.0946018e-08
1.4475837e-08
1.4965772e-07
1.7820585e-07
1.7711075e-07
3.1418625e-07
2.2538384e-08
-6.6901030e-08
7.3727577e-08
5.1176551e-07
1.4177061e-07
4.0475598e-08
1.1795298e-07
-2.1013085e-07
1.5561788e-07
-1.9496177e-08
1.6174666e-22
9.3577491e-08
-1.0022266e-07
1.7944811e-07
1.5772717e-07
1.1470426e-07
2.8814503e-07
-5.7480548e-08
6.9965537e-08
2.9437379e-07
1.0741380e-07
1.3237618e-21
8.8510788e-08
8.6403680e-22
-7.3762799e-08
4.1936011e-07
1.2642991e-07
1.2846183e-07
1.3160958e-07
1.4061851e-07
-3.0982228e-08
1.2383295e-07
-1.7669457e-08
-2.1861155e-08
2.2281178e-07
3.8727251e-07
1.2530724e-21
6.7121697e-08
1.0669242e-09
1.6411846e-07
-1.4023806e-07
5.9865062e-07
2.2173376e-07
-9.3819544e-08
2.6028466e-08
4.5390799e-08
2.0558481e-07
1.2876787e-07
1.6847464e-21
2.2440645e-07
2.3374095e-07
1.7058834e-07
1.2116050e-07
3.2508368e-07
2.9860655e-07
3.0332220e-08
6.8306662e-08
1.7740392e-07
1.3851752e-07
1.9220630e-07
1.5644740e-07
5.7463211e-08
2.0612056e-07
3.4509288e-08
4.1200838e-08
2.1447299e-07
4.2535216e-08
3.9763570e-08
1.7700975e-08
2.2776955e-07
1.0660959e-07
1.3986381e-07
-3.4186505e-09
4.0805699e-07
2.3428581e-07
2.3020479e-07
5.8817083e-08
-2.7747586e-07
-3.2515604e-08
1.9495259e-07
1.8221469e-07
9.2128509e-08
7.5614778e-08
1.1175278e-07
1.4371865e-07
1.6150199e-07
1.4190245e-08
5.4264884e-08
5.3917717e-07
3.2745977e-08
1.9663094e-07
1.3928944e-07
1.0751991e-07
4.1564522e-07
1.0132939e-07
1.0405690e-07
8.0150976e-08
1.1222469e-07
1.0685614e-07
2.0334417e-07
2.8551776e-08
1.6391072e-21
1.6890066e-08
8.3406107e-08
6.3456362e-08
-3.8568526e-08
1.3944771e-09
1.4331327e-07
-2.0251408e-08
2.3522844e-08
3.1906202e-07
7.5286856e-08
-7.2408021e-08
2.2199659e-07
1.8323230e-07
1.2143401e-07
-1.8544321e-07
1.8725927e-09
2.5076298e-07
9.5875421e-08
-6.0192086e-08
2.0911251e-07
4.1042792e-08
1.1226241e-07
5.2058759e-08
5.9788924e-08
-8.2921464e-10
8.3705721e-08
5.5088730e-08
8.6853149e-08
3.4700508e-07
2.2615678e-08
2.4505943e-07
5.4535228e-08
7.5587996e-22
1.3855350e-07
8.3556451e-08
2.6495211e-08
1.1830790e-07
8.9195364e-22
1.3827021e-07
5.3786454e-08
4.4545050e-08
-7.8815621e-09
-7.8267938e-08
8.5490235e-08
2.2539024e-07
3.5351184e-07
6.8224963e-08
5.8560863e-22
7.2149383e-08
-5.1164736e-08
8.8916103e-08
2.5681305e-07
9.8890922e-08
2.0160779e-07
7.0493989e-08
-5.1009925e-09
5.8438076e-08
1.3188105e-07
3.5386588e-08
7.1645854e-09
4.7934737e-08
5.7022543e-08
7.6910489e-08
1.0021381e-07
4.2075638e-07
-1.3094531e-07
-3.6699152e-08
-1.9827351e-07
1.9605795e-07
-2.3549289e-08
-1.7882842e-07
1.2911006e-07
6.7334867e-08
9.0488044e-08
1.1558885e-07
1.7099792e-07
9.3279475e-08
-2.1696268e-07
-5.5828277e-08
1.0731826e-07
8.8121936e-08
9.5278743e-08
-6.7561537e-08
5.9055886e-08
-2.3042830e-07
1.6244211e-07
1.8106491e-07
1.8892761e-07
-1.6066187e-08
-2.0153938e-07
-1.3764476e-07
-3.4828986e-08
-4.5546917e-09
1.1125461e-08
1.9021454e-21
2.5474337e-08
2.7048264e-08
4.5331165e-09
1.4299776e-08
-4.6018968e-08
1.5034447e-08
1.1456009e-07
1.3898094e-07
2.7327349e-07
3.5349211e-07
9.0919281e-09
1.7324794e-07
8.2435434e-08
1.2439611e-07
9.5579508e-22
7.4445410e-08
1.4617812e-07
9.9449004e-08
-6.1960055e-09
-4.8030611e-08
1.3738484e-07
1.8643811e-07
1.5405195e-08
1.8289921e-07
6.1090375e-08
4.0003337e-07
9.3646051e-08
1.8784813e-07
2.4299661e-07
8.0279790e-08
1.1067108e-07
3.0031487e-07
2.4209146e-07
-1.7339732e-07
1.1384367e-07
2.1273009e-07
2.9618943e-07
1.9478917e-07
2.2032747e-08
2.8508724e-08
2.5761284e-07
-1.6970336e-08
1.0641580e-07
5.5678235e-08
6.3807427e-08
-2.2761403e-08
1.0449358e-07
2.0416445e-07
1.6348764e-08
-1.0155632e-08
4.0485755e-08
1.9842466e-07
-1.8081405e-09
1.2368466e-07
1.4127348e-08
-1.2904391e-07
2.0351216e-07
2.4032670e-07
-6.4871990e-08
2.2495047e-07
6.2498714e-08
4.7461089e-08
1.9401712e-07
2.6892401e-08
1.7295373e-07
1.2260200e-07
3.9636291e-07
-2.1675024e-08
8.3751502e-08
1.4551564e-07
1.9732033e-07
2.0289625e-07
1.3781350e-07
8.0298761e-08
2.7725022e-07
1.0868857e-07
1.2499457e-07
3.3178338e-07
3.2434249e-07
-2.1433513e-08
2.1780198e-07
-2.1573048e-07
9.1148927e-08
1.6416766e-07
2.0121763e-07
2.4343058e-07
2.7808426e-07
5.6363536e-08
5.9002039e-09
2.0361865e-07
5.2956292e-08
5.9209356e-07
1.0692258e-07
5.0005889e-07
3.5794545e-07
3.7003795e-07
7.1596098e-08
8.3744474e-08
6.6316183e-08
1.2966237e-07
2.5333861e-07
4.3370912e-07
5.8697786e-08
-2.1156675e-08
8.2720788e-08
1.0377637e-07
-2.6677853e-08
5.4607355e-08
7.3256409e-08
-2.7131362e-08
4.3468174e-07
3.5019742e-08
1.0437127e-07
8.6789427e-08
1.6742919e-07
4.0854937e-07
5.3594547e-08
1.3443957e-07
4.3723023e-08
3.4812018e-07
9.9023481e-08
7.2108826e-08
1.2801522e-07
6.1238694e-08
1.1868122e-07
4.0156567e-07
3.3134864e-07
-1.2874169e-08
1.0539036e-07
3.9635609e-08
1.0321325e-07
-1.0356750e-07
1.8852219e-07
3.6418848e-07
2.1133175e-07
3.1378843e-08
1.1537418e-21
2.1281897e-07
1.2087298e-07
2.5506156e-07
1.7058161e-07
1.3187930e-07
1.1060493e-07
2.8543039e-07
1.6040261e-07
1.2998295e-07
7.9056299e-08
1.3909252e-07
-2.8869239e-08
1.8795511e-07
5.4858450e-08
-4.4342361e-09
4.2843178e-07
4.4283365e-08
2.2022211e-07
2.0204345e-07
3.0273227e-07
1.1141658e-07
5.1591235e-07
-4.8577654e-08
-2.6365782e-10
5.2324374e-08
1.9328333e-07
1.9365585e-07
-1.4956497e-07
1.5068463e-07
1.9260352e-07
4.2161233e-08
-2.8344893e-08
-7.1999040e-08
2.0121763e-07
1.2314663e-07
1.0140032e-21
1.8438990e-07
1.1639080e-07
3.0742061e-07
-3.2566934e-08
1.9746587e-07
1.3830157e-07
5.2866419e-08
2.2671112e-07
-1.2711481e-08
5.9758669e-08
1.8676421e-07
-7.1364411e-08
7.4685353e-08
3.3436959e-22
3.0866622e-07
7.5093880e-08
3.3225636e-08
2.4760942e-08
1.8469557e-07
2.1131875e-07
6.8801810e-08
2.2809868e-07
2.6943522e-07
2.2726852e-08
-1.2969775e-08
-3.0967823e-07
5.8825695e-08
1.6189202e-07
1.7117871e-07
1.0438070e-07
6.2697323e-09
1.5326228e-07
5.6326257e-07
2.2470079e-08
6.7578192e-09
2.6381181e-07
1.6127974e-07
2.6595069e-07
1.7456326e-08
8.9268205e-08
1.2096717e-07
2.7107953e-07
3.2043263e-07
2.3244398e-07
-1.8865005e-07
3.9804669e-07
2.4003103e-07
1.4694757e-07
1.6854693e-07
1.3619858e-07
2.1220303e-07
1.0521564e-07
8.8075097e-08
3.9857426e-08
2.8716823e-07
1.4169431e-07
7.3168017e-08
3.5703806e-07
-1.0778222e-07
2.1197140e-07
1.9057413e-07
2.2330298e-08
-8.0364245e-08
6.0438602e-08
3.8265594e-07
2.0358087e-07
2.4578883e-08
1.0295844e-07
2.6813291e-07
1.4741130e-07
6.1578717e-08
9.3082072e-08
4.7379885e-08
4.6260968e-08
2.9253670e-07
-6.2715230e-08
5.2470921e-07
9.8439848e-08
3.5193261e-22
1.2151366e-07
1.8477546e-07
9.4421970e-22
2.0173961e-07
2.1457133e-07
1.0241386e-07
5.0499494e-08
-7.0834709e-08
1.6082545e-07
1.0887376e-07
2.7129235e-07
8.1299216e-09
2.5170533e-07
8.9082675e-08
1.4630216e-07
6.2983514e-07
-8.2978580e-08
2.4007363e-07
0.0000000e+00
1.1817681e-07
1.4533430e-07
3.2930334e-08
3.0189489e-07
8.2895305e-08
4.9125305e-08
1.2152204e-07
2.2958216e-07
1.3571527e-07
3.1295674e-08
2.3273556e-07
1.8747200e-07
8.3956853e-22
1.5845458e-07
2.1485896e-07
6.8360549e-08
7.8281502e-08
2.2357457e-22
1.4049871e-07
-7.1129627e-08
2.0817988e-07
-8.0748116e-08
1.9395466e-07
-1.5304265e-07
-1.1389259e-07
1.2969775e-08
1.1108969e-21
1.9746611e-07
2.0286804e-07
6.5160556e-08
9.3487671e-08
-2.4180773e-08
-3.4517637e-08
-4.0000188e-08
2.9582470e-08
3.5829512e-08
6.0438346e-08
2.6892090e-07
2.4452814e-07
9.2321713e-08
4.1907029e-08
2.1177114e-07
3.1181251e-08
7.5767911e-22
1.0230718e-07
6.8793859e-08
-7.2098068e-08
2.0220044e-21
1.5978823e-07
-2.4003103e-07
9.1924917e-08
-9.3026088e-08
2.7795741e-07
-5.8892756e-08
2.1230625e-07
1.0573936e-07
-4.1229278e-08
5.4708497e-08
2.9398473e-07
-3.6381191e-08
2.4841350e-07
9.0283805e-08
1.2794730e-07
3.3582218e-08
6.7089023e-09
-4.4075225e-08
1.1238212e-07
-8.4902538e-08
-4.0542179e-07
-1.1612711e-07
1.6966317e-07
6.7585248e-08
2.2684333e-07
8.7018066e-08
-1.7130075e-07
5.9525793e-22
2.2796216e-07
-1.0091191e-07
-9.8077699e-08
2.4300823e-07
9.2685617e-08
3.9155537e-08
6.7713060e-08
4.8881086e-09
1.7559037e-08
1.4062416e-08
1.3886442e-07
1.8619424e-08
1.9313920e-07
6.3527471e-22
4.2467974e-07
2.6767140e-07
6.7275892e-08
-8.1086204e-09
1.6411479e-07
7.2753991e-08
-2.6072621e-08
5.7267556e-08
5.1729176e-09
2.0643058e-07
5.2641369e-08
7.0099574e-08
-6.6501947e-08
-9.0401770e-08
1.0116986e-07
3.4316594e-07
-1.5730369e-07
2.5824710e-07
1.4178480e-07
4.8302525e-07
3.2294224e-07
2.2402688e-07
-3.8814388e-08
-1.4009708e-08
1.3778202e-07
-4.3817573e-07
1.4089165e-09
3.6752297e-08
-8.3197421e-08
-5.0298414e-08
3.5917555e-08
4.5195705e-08
2.3819817e-07
9.0761043e-09
1.3298385e-08
1.3750575e-07
-2.9538871e-08
3.4175610e-22
1.6049827e-07
0.0000000e+00
-3.1250416e-08
7.9265739e-08
-2.0612056e-07
2.2086054e-07
3.3036663e-08
2.7047173e-07
-7.9312969e-08
1.6852987e-07
6.8634805e-08
1.0806978e-07
5.8202136e-08
2.9524813e-08
5.9146539e-22
1.2211781e-07
2.3061887e-07
1.2976665e-22
1.1561295e-07
1.1479788e-21
2.0205549e-07
5.3534408e-22
2.7745358e-07
6.3527471e-22
ACTIVE 1 2292  float
-1.0000000e+00
-1.0000000e+00
-1.0000000e+00
-1.0000000e+00
-1.0000000e+00
-1.0000000e+00
-1.0000000e+00
-1.0000000e+00
-1.0000000e+00
-1.0000000e+00
-1.0000000e+00
-1.0000000e+00
-1.0000000e+00
-1.0000000e+00
-1.0000000e+00
-1.0000000e+00
-1.0000000e+00
-1.0000000e+00
-1.0000000e+00
-1.0000000e+00
-1.0000000e+00
-1.0000000e+00
-1.0000000e+00
-1.0000000e+00
-1.0000000e+00
-1.0000000e+00
-1.0000000e+00
-1.0000000e+00
-1.0000000e+00
-1.0000000e+00
-1.0000000e+00
-1.0000000e+00
-1.0000000e+00
-1.0000000e+00
-1.0000000e+00
-1.0000000e+00
-1.0000000e+00
-1.0000000e+00
-1.0000000e+00
-1.0000000e+00
-1.0000000e+00
-1.0000000e+00
-1.0000000e+00
-1.0000000e+00
-1.0000000e+00
-1.0000000e+00
-1.0000000e+00
-1.0000000e+00
-1.0000000e+00
-1.0000000e+00
-1.0000000e+00
-1.0000000e+00
-1.0000000e+00
-1.0000000e+00
-1.0000000e+00
-1.0000000e+00
-1.0000000e+00
-1.0000000e+00
-1.0000000e+00
-1.0000000e+00
-1.0000000e+00
-1.0000000e+00
-1.0000000e+00
-1.0000000e+00
-1.0000000e+00
-1.0000000e+00
-1.0000000e+00
-1.0000000e+00
-1.0000000e+00
-1.0000000e+00
-1.0000000e+00
-1.0000000e+00
-1.0000000e+00
-1.0000000e+00
-1.0000000e+00
-1.0000000e+00
-1.0000000e+00
-1.0000000e+00
-1.0000000e+00
-1.0000000e+00
-1.0000000e+00
-1.0000000e+00
-1.0000000e+00
-1.0000000e+00
-1.0000000e+00
-1.0000000e+00
-1.0000000e+00
-1.0000000e+00
-1.0000000e+00
-1.0000000e+00
-1.0000000e+00
-1.0000000e+00
-1.0000000e+00
-1.0000000e+00
-1.0000000e+00
-1.0000000e+00
-1.0000000e+00
-1.0000000e+00
-1.0000000e+00
-1.0000000e+00
-1.0000000e+00
-1.0000000e+00
-1.0000000e+00
-1.0000000e+00
-1.0000000e+00
-1.0000000e+00
-1.0000000e+00
-1.0000000e+00
-1.0000000e+00
-1.0000000e+00
-1.0000000e+00
-1.0000000e+00
-1.0000000e+00
-1.0000000e+00
-1.0000000e+00
-1.0000000e+00
-1.0000000e+00
-1.0000000e+00
-1.0000000e+00
-1.0000000e+00
-1.0000000e+00
-1.0000000e+00
-1.0000000e+00
-1.0000000e+00
-1.0000000e+00
-1.0000000e+00
-1.0000000e+00
-1.0000000e+00
-1.0000000e+00
-1.0000000e+00
-1.0000000e+00
-1.0000000e+00
-1.0000000e+00
-1.0000000e+00
-1.0000000e+00
-1.0000000e+00
-1.0000000e+00
-1.0000000e+00
-1.0000000e+00
-1.0000000e+00
-1.0000000e+00
-1.0000000e+00
-1.0000000e+00
-1.0000000e+00
-1.0000000e+00
-1.0000000e+00
-1.0000000e+00
-1.0000000e+00
-1.0000000e+00
-1.0000000e+00
-1.0000000e+00
-1.0000000e+00
-1.0000000e+00
-1.0000000e+00
-1.0000000e+00
-1.0000000e+00
-1.0000000e+00
-1.0000000e+00
-1.0000000e+00
-1.0000000e+00
-1.0000000e+00
-1.0000000e+00
-1.0000000e+00
-1.0000000e+00
-1.0000000e+00
-1.0000000e+00
-1.0000000e+00
-1.0000000e+00
-1.0000000e+00
-1.0000000e+00
-1.0000000e+00
-1.0000000e+00
-1.0000000e+00
-1.0000000e+00
-1.0000000e+00
-1.0000000e+00
-1.0000000e+00
-1.0000000e+00
-1.0000000e+00
-1.0000000e+00
-1.0000000e+00
-1.0000000e+00
-1.0000000e+00
-1.0000000e+00
-1.0000000e+00
-1.0000000e+00
-1.0000000e+00
-1.0000000e+00
-1.0000000e+00
-1.0000000e+00
-1.0000000e+00
-1.0000000e+00
-1.0000000e+00
-1.0000000e+00
-1.0000000e+00
-1.0000000e+00
-1.0000000e+00
-1.0000000e+00
-1.0000000e+00
-1.0000000e+00
-1.0000000e+00
-1.0000000e+00
-1.0000000e+00
-1.0000000e+00
-1.0000000e+00
-1.0000000e+00
-1.0000000e+00
-1.0000000e+00
-1.0000000e+00
-1.0000000e+00
-1.0000000e+00
-1.0000000e+00
-1.0000000e+00
-1.0000000e+00
-1.0000000e+00
-1.0000000e+00
-1.0000000e+00
-1.0000000e+00
-1.0000000e+00
-1.0000000e+00
-1.0000000e+00
-1.0000000e+00
-1.0000000e+00
-1.0000000e+00
-1.0000000e+00
-1.0000000e+00
-1.0000000e+00
-1.0000000e+00
-1.0000000e+00
-1.0000000e+00
-1.0000000e+00
-1.0000000e+00
-1.0000000e+00
-1.0000000e+00
-1.0000000e+00
-1.0000000e+00
-1.0000000e+00
-1.0000000e+00
-1.0000000e+00
-1.0000000e+00
-1.0000000e+00
-1.0000000e+00
-1.0000000e+00
-1.0000000e+00
-1.0000000e+00
-1.0000000e+00
-1.0000000e+00
-1.0000000e+00
-1.0000000e+00
-1.0000000e+00
-1.0000000e+00
-1.0000000e+00
-1.0000000e+00
-1.0000000e+00
-1.0000000e+00
-1.0000000e+00
-1.0000000e+00
-1.0000000e+00
-1.0000000e+00
-1.0000000e+00
-1.0000000e+00
-1.0000000e+00
-1.0000000e+00
-1.0000000e+00
-1.0000000e+00
-1.0000000e+00
-1.0000000e+00
-1.0000000e+00
-1.0000000e+00
-1.0000000e+00
-1.0000000e+00
-1.0000000e+00
-1.0000000e+00
-1.0000000e+00
-1.0000000e+00
-1.0000000e+00
-1.0000000e+00
-1.0000000e+00
-1.0000000e+00
-1.0000000e+00
-1.0000000e+00
-1.0000000e+00
-1.0000000e+00
-1.0000000e+00
-1.0000000e+00
-1.0000000e+00
-1.0000000e+00
-1.0000000e+00
-1.0000000e+00
-1.0000000e+00
-1.0000000e+00
-1.0000000e+00
-1.0000000e+00
-1.0000000e+00
-1.0000000e+00
-1.0000000e+00
-1.0000000e+00
-1.0000000e+00
-1.0000000e+00
-1.0000000e+00
-1.0000000e+00
-1.0000000e+00
-1.0000000e+00
-1.0000000e+00
-1.0000000e+00
-1.0000000e+00
-1.0000000e+00
-1.0000000e+00
-1.0000000e+00
-1.0000000e+00
-1.0000000e+00
-1.0000000e+00
-1.0000000e+00
-1.0000000e+00
-1.0000000e+00
-1.0000000e+00
-1.0000000e+00
-1.0000000e+00
-1.0000000e+00
-1.0000000e+00
-1.0000000e+00
-1.0000000e+00
-1.0000000e+00
-1.0000000e+00
-1.0000000e+00
-1.0000000e+00
-1.0000000e+00
-1.0000000e+00
-1.0000000e+00
-1.0000000e+00
-1.0000000e+00
-1.0000000e+00
-1.0000000e+00
-1.0000000e+00
-1.0000000e+00
-1.0000000e+00
-1.0000000e+00
-1.0000000e+00
-1.0000000e+00
-1.0000000e+00
-1.0000000e+00
-1.0000000e+00
-1.0000000e+00
-1.0000000e+00
-1.0000000e+00
-1.0000000e+00
-1.0000000e+00
-1.0000000e+00
-1.0000000e+00
-1.0000000e+00
-1.0000000e+00
-1.0000000e+00
-1.0000000e+00
-1.0000000e+00
-1.0000000e+00
-1.0000000e+00
-1.0000000e+00
-1.0000000e+00
-1.0000000e+00
-1.0000000e+00
-1.0000000e+00
-1.0000000e+00
-1.0000000e+00
-1.0000000e+00
-1.0000000e+00
-1.0000000e+00
-1.0000000e+00
-1.0000000e+00
-1.0000000e+00
-1.0000000e+00
-1.0000000e+00
-1.0000000e+00
-1.0000000e+00
-1.0000000e+00
-1.0000000e+00
-1.0000000e+00
-1.0000000e+00
-1.0000000e+00
-1.0000000e+00
-1.0000000e+00
-1.0000000e+00
-1.0000000e+00
-1.0000000e+00
-1.0000000e+00
-1.0000000e+00
-1.0000000e+00
-1.0000000e+00
-1.0000000e+00
-1.0000000e+00
-1.0000000e+00
-1.0000000e+00
-1.0000000e+00
-1.0000000e+00
-1.0000000e+00
-1.0000000e+00
-1.0000000e+00
-1.0000000e+00
-1.0000000e+00
-1.0000000e+00
-1.0000000e+00
-1.0000000e+00
-1.0000000e+00
-1.0000000e+00
-1.0000000e+00
-1.0000000e+00
-1.0000000e+00
-1.0000000e+00
-1.0000000e+00
-1.0000000e+00
-1.0000000e+00
-1.0000000e+00
-1.0000000e+00
-1.0000000e+00
-1.0000000e+00
-1.0000000e+00
-1.0000000e+00
-1.0000000e+00
-1.0000000e+00
-1.0000000e+00
-1.0000000e+00
-1.0000000e+00
-1.0000000e+00
-1.0000000e+00
-1.0000000e+00
-1.0000000e+00
-1.0000000e+00
-1.0000000e+00
-1.0000000e+00
-1.0000000e+00
-1.0000000e+00
-1.0000000e+00
-1.0000000e+00
-1.0000000e+00
-1.0000000e+00
-1.0000000e+00
-1.0000000e+00
-1.0000000e+00
-1.0000000e+00
-1.0000000e+00
-1.0000000e+00
-1.0000000e+00
-1.0000000e+00
-1.0000000e+00
-1.0000000e+00
-1.0000000e+00
-1.0000000e+00
-1.0000000e+00
-1.0000000e+00
-1.0000000e+00
-1.0000000e+00
-1.0000000e+00
-1.0000000e+00
-1.0000000e+00
-1.0000000e+00
-1.0000000e+00
-1.0000000e+00
-1.0000000e+00
-1.0000000e+00
-1.0000000e+00
-1.0000000e+00
-1.0000000e+00
-1.0000000e+00
-1.0000000e+00
-1.0000000e+00
-1.0000000e+00
-1.0000000e+00
-1.0000000e+00
-1.0000000e+00
-1.0000000e+00
-1.0000000e+00
-1.0000000e+00
-1.0000000e+00
-1.0000000e+00
-1.0000000e+00
-1.0000000e+00
-1.0000000e+00
-1.0000000e+00
-1.0000000e+00
-1.0000000e+00
-1.0000000e+00
-1.0000000e+00
-1.0000000e+00
-1.0000000e+00
-1.0000000e+00
-1.0000000e+00
-1.0000000e+00
-1.0000000e+00
-1.0000000e+00
-1.0000000e+00
-1.0000000e+00
-1.0000000e+00
-1.0000000e+00
-1.0000000e+00
-1.0000000e+00
-1.0000000e+00
-1.0000000e+00
-1.0000000e+00
-1.0000000e+00
-1.0000000e+00
-1.0000000e+00
-1.0000000e+00
-1.0000000e+00
-1.0000000e+00
-1.0000000e+00
-1.0000000e+00
-1.0000000e+00
-1.0000000e+00
-1.0000000e+00
-1.0000000e+00
-1.0000000e+00
-1.0000000e+00
-1.0000000e+00
-1.0000000e+00
-1.0000000e+00
-1.0000000e+00
-1.0000000e+00
-1.0000000e+00
-1.0000000e+00
-1.0000000e+00
-1.0000000e+00
-1.0000000e+00
-1.0000000e+00
-1.0000000e+00
-1.0000000e+00
-1.0000000e+00
-1.0000000e+00
-1.0000000e+00
-1.0000000e+00
-1.0000000e+00
-1.0000000e+00
-1.0000000e+00
-1.0000000e+00
-1.0000000e+00
-1.0000000e+00
-1.0000000e+00
-1.0000000e+00
-1.0000000e+00
-1.0000000e+00
-1.0000000e+00
-1.0000000e+00
-1.0000000e+00
-1.0000000e+00
-1.0000000e+00
-1.0000000e+00
-1.0000000e+00
-1.0000000e+00
-1.0000000e+00
-1.0000000e+00
-1.0000000e+00
-1.0000000e+00
-1.0000000e+00
-1.0000000e+00
-1.0000000e+00
-1.0000000e+00
-1.0000000e+00
-1.0000000e+00
-1.0000000e+00
-1.0000000e+00
-1.0000000e+00
-1.0000000e+00
-1.0000000e+00
-1.0000000e+00
-1.0000000e+00
-1.0000000e+00
-1.0000000e+00
-1.0000000e+00
-1.0000000e+00
-1.0000000e+00
-1.0000000e+00
-1.0000000e+00
-1.0000000e+00
-1.0000000e+00
-1.0000000e+00
-1.0000000e+00
-1.0000000e+00
-1.0000000e+00
-1.0000000e+00
-1.0000000e+00
-1.0000000e+00
-1.0000000e+00
-1.0000000e+00
-1.0000000e+00
-1.0000000e+00
-1.0000000e+00
-1.0000000e+00
-1.0000000e+00
-1.0000000e+00
-1.0000000e+00
-1.0000000e+00
-1.0000000e+00
-1.0000000e+00
-1.0000000e+00
-1.0000000e+00
-1.0000000e+00
-1.0000000e+00
-1.0000000e+00
-1.0000000e+00
-1.0000000e+00
-1.0000000e+00
-1.0000000e+00
-1.0000000e+00
-1.0000000e+00
-1.0000000e+00
-1.0000000e+00
-1.0000000e+00
-1.0000000e+00
-1.0000000e+00
-1.0000000e+00
-1.0000000e+00
-1.0000000e+00
-1.0000000e+00
-1.0000000e+00
-1.0000000e+00
-1.0000000e+00
-1.0000000e+00
-1.0000000e+00
-1.0000000e+00
-1.0000000e+00
-1.0000000e+00
-1.0000000e+00
-1.0000000e+00
-1.0000000e+00
-1.0000000e+00
-1.0000000e+00
-1.0000000e+00
-1.0000000e+00
-1.0000000e+00
-1.0000000e+00
-1.0000000e+00
-1.0000000e+00
-1.0000000e+00
-1.0000000e+00
-1.0000000e+00
-1.0000000e+00
-1.0000000e+00
-1.0000000e+00
-1.0000000e+00
-1.0000000e+00
-1.0000000e+00
-1.0000000e+00
-1.0000000e+00
-1.0000000e+00
-1.0000000e+00
-1.0000000e+00
-1.0000000e+00
-1.0000000e+00
-1.0000000e+00
-1.0000000e+00
-1.0000000e+00
-1.0000000e+00
-1.0000000e+00
-1.0000000e+00
-1.0000000e+00
-1.0000000e+00
-1.0000000e+00
-1.0000000e+00
-1.0000000e+00
-1.0000000e+00
-1.0000000e+00
-1.0000000e+00
-1.0000000e+00
-1.0000000e+00
-1.0000000e+00
-1.0000000e+00
-1.0000000e+00
-1.0000000e+00
-1.0000000e+00
-1.0000000e+00
-1.0000000e+00
-1.0000000e+00
-1.0000000e+00
-1.0000000e+00
-1.0000000e+00
-1.0000000e+00
-1.0000000e+00
-1.0000000e+00
-1.0000000e+00
-1.0000000e+00
-1.0000000e+00
-1.0000000e+00
-1.0000000e+00
-1.0000000e+00
-1.0000000e+00
-1.0000000e+00
-1.0000000e+00
-1.0000000e+00
-1.0000000e+00
-1.0000000e+00
-1.0000000e+00
-1.0000000e+00
-1.0000000e+00
-1.0000000e+00
-1.0000000e+00
-1.0000000e+00
-1.0000000e+00
-1.0000000e+00
-1.0000000e+00
-1.0000000e+00
-1.0000000e+00
-1.0000000e+00
-1.0000000e+00
-1.0000000e+00
-1.0000000e+00
-1.0000000e+00
-1.0000000e+00
-1.0000000e+00
-1.0000000e+00
-1.0000000e+00
-1.0000000e+00
-1.0000000e+00
-1.0000000e+00
-1.0000000e+00
-1.0000000e+00
-1.0000000e+00
-1.0000000e+00
-1.0000000e+00
-1.0000000e+00
-1.0000000e+00
-1.0000000e+00
-1.0000000e+00
-1.0000000e+00
-1.0000000e+00
-1.0000000e+00
-1.0000000e+00
-1.0000000e+00
-1.0000000e+00
-1.0000000e+00
-1.0000000e+00
-1.0000000e+00
-1.0000000e+00
-1.0000000e+00
-1.0000000e+00
-1.0000000e+00
-1.0000000e+00
-1.0000000e+00
-1.0000000e+00
-1.0000000e+00
-1.0000000e+00
-1.0000000e+00
-1.0000000e+00
-1.0000000e+00
-1.0000000e+00
-1.0000000e+00
-1.0000000e+00
-1.0000000e+00
-1.0000000e+00
-1.0000000e+00
-1.0000000e+00
-1.0000000e+00
-1.0000000e+00
-1.0000000e+00
-1.0000000e+00
-1.0000000e+00
-1.0000000e+00
-1.0000000e+00
-1.0000000e+00
-1.0000000e+00
-1.0000000e+00
-1.0000000e+00
-1.0000000e+00
-1.0000000e+00
-1.0000000e+00
-1.0000000e+00
-1.0000000e+00
-1.0000000e+00
-1.0000000e+00
-1.0000000e+00
-1.0000000e+00
-1.0000000e+00
-1.0000000e+00
-1.0000000e+00
-1.0000000e+00
-1.0000000e+00
-1.0000000e+00
-1.0000000e+00
-1.0000000e+00
-1.0000000e+00
-1.0000000e+00
-1.0000000e+00
-1.0000000e+00
-1.0000000e+00
-1.0000000e+00
-1.0000000e+00
-1.0000000e+00
-1.0000000e+00
-1.0000000e+00
-1.0000000e+00
-1.0000000e+00
-1.0000000e+00
-1.0000000e+00
-1.0000000e+00
-1.0000000e+00
-1.0000000e+00
-1.0000000e+00
-1.0000000e+00
-1.0000000e+00
-1.0000000e+00
-1.0000000e+00
-1.0000000e+00
-1.0000000e+00
-1.0000000e+00
-1.0000000e+00
-1.0000000e+00
-1.0000000e+00
-1.0000000e+00
-1.0000000e+00
-1.0000000e+00
-1.0000000e+00
-1.0000000e+00
-1.0000000e+00
-1.0000000e+00
-1.0000000e+00
-1.0000000e+00
-1.0000000e+00
-1.0000000e+00
-1.0000000e+00
-1.0000000e+00
-1.0000000e+00
-1.0000000e+00
-1.0000000e+00
-1.0000000e+00
-1.0000000e+00
-1.0000000e+00
-1.0000000e+00
-1.0000000e+00
-1.0000000e+00
-1.0000000e+00
-1.0000000e+00
-1.0000000e+00
-1.0000000e+00
-1.0000000e+00
-1.0000000e+00
-1.0000000e+00
-1.0000000e+00
-1.0000000e+00
-1.0000000e+00
-1.0000000e+00
-1.0000000e+00
-1.0000000e+00
-1.0000000e+00
-1.0000000e+00
-1.0000000e+00
-1.0000000e+00
-1.0000000e+00
-1.0000000e+00
-1.0000000e+00
-1.0000000e+00
-1.0000000e+00
-1.0000000e+00
-1.0000000e+00
-1.0000000e+00
-1.0000000e+00
-1.0000000e+00
-1.0000000e+00
-1.0000000e+00
-1.0000000e+00
-1.0000000e+00
-1.0000000e+00
-1.0000000e+00
-1.0000000e+00
-1.0000000e+00
-1.0000000e+00
-1.0000000e+00
-1.0000000e+00
-1.0000000e+00
-1.0000000e+00
-1.0000000e+00
-1.0000000e+00
-1.0000000e+00
-1.0000000e+00
-1.0000000e+00
-1.0000000e+00
-1.0000000e+00
-1.0000000e+00
-1.0000000e+00
-1.0000000e+00
-1.0000000e+00
-1.0000000e+00
-1.0000000e+00
-1.0000000e+00
-1.0000000e+00
-1.0000000e+00
-1.0000000e+00
-1.0000000e+00
-1.0000000e+00
-1.0000000e+00
-1.0000000e+00
-1.0000000e+00
-1.0000000e+00
-1.0000000e+00
-1.0000000e+00
-1.0000000e+00
-1.0000000e+00
-1.0000000e+00
-1.0000000e+00
-1.0000000e+00
-1.0000000e+00
-1.0000000e+00
-1.0000000e+00
-1.0000000e+00
-1.0000000e+00
-1.0000000e+00
-1.0000000e+00
-1.0000000e+00
-1.0000000e+00
-1.0000000e+00
-1.0000000e+00
-1.0000000e+00
-1.0000000e+00
-1.0000000e+00
-1.0000000e+00
-1.0000000e+00
-1.0000000e+00
-1.0000000e+00
-1.0000000e+00
-1.0000000e+00
-1.0000000e+00
-1.0000000e+00
-1.0000000e+00
-1.0000000e+00
-1.0000000e+00
-1.0000000e+00
-1.0000000e+00
-1.0000000e+00
-1.0000000e+00
-1.0000000e+00
-1.0000000e+00
-1.0000000e+00
-1.0000000e+00
-1.0000000e+00
-1.0000000e+00
-1.0000000e+00
-1.0000000e+00
-1.0000000e+00
-1.0000000e+00
-1.0000000e+00
-1.0000000e+00
-1.0000000e+00
-1.0000000e+00
-1.0000000e+00
-1.0000000e+00
-1.0000000e+00
-1.0000000e+00
-1.0000000e+00
-1.0000000e+00
-1.0000000e+00
-1.0000000e+00
-1.0000000e+00
-1.0000000e+00
-1.0000000e+00
-1.0000000e+00
-1.0000000e+00
-1.0000000e+00
-1.0000000e+00
-1.0000000e+00
-1.0000000e+00
-1.0000000e+00
-1.0000000e+00
-1.0000000e+00
-1.0000000e+00
-1.0000000e+00
-1.0000000e+00
-1.0000000e+00
-1.0000000e+00
-1.0000000e+00
-1.0000000e+00
-1.0000000e+00
-1.0000000e+00
-1.0000000e+00
-1.0000000e+00
-1.0000000e+00
-1.0000000e+00
-1.0000000e+00
-1.0000000e+00
-1.0000000e+00
-1.0000000e+00
-1.0000000e+00
-1.0000000e+00
-1.0000000e+00
-1.0000000e+00
-1.0000000e+00
-1.0000000e+00
-1.0000000e+00
-1.0000000e+00
-1.0000000e+00
-1.0000000e+00
-1.0000000e+00
-1.0000000e+00
-1.0000000e+00
-1.0000000e+00
-1.0000000e+00
-1.0000000e+00
-1.0000000e+00
-1.0000000e+00
-1.0000000e+00
-1.0000000e+00
-1.0000000e+00
-1.0000000e+00
-1.0000000e+00
-1.0000000e+00
-1.0000000e+00
-1.0000000e+00
-1.0000000e+00
-1.0000000e+00
-1.0000000e+00
-1.0000000e+00
-1.0000000e+00
-1.0000000e+00
-1.0000000e+00
-1.0000000e+00
-1.0000000e+00
-1.0000000e+00
-1.0000000e+00
-1.0000000e+00
-1.0000000e+00
-1.0000000e+00
-1.0000000e+00
-1.0000000e+00
-1.0000000e+00
-1.0000000e+00
-1.0000000e+00
-1.0000000e+00
-1.0000000e+00
-1.0000000e+00
-1.0000000e+00
-1.0000000e+00
-1.0000000e+00
-1.0000000e+00
-1.0000000e+00
-1.0000000e+00
-1.0000000e+00
-1.0000000e+00
-1.0000000e+00
-1.0000000e+00
-1.0000000e+00
-1.0000000e+00
-1.0000000e+00
-1.0000000e+00
-1.0000000e+00
-1.0000000e+00
-1.0000000e+00
-1.0000000e+00
-1.0000000e+00
-1.0000000e+00
-1.0000000e+00
-1.0000000e+00
-1.0000000e+00
-1.0000000e+00
-1.0000000e+00
-1.0000000e+00
-1.0000000e+00
-1.0000000e+00
-1.0000000e+00
-1.0000000e+00
-1.0000000e+00
-1.0000000e+00
-1.0000000e+00
-1.0000000e+00
-1.0000000e+00
-1.0000000e+00
-1.0000000e+00
-1.0000000e+00
-1.0000000e+00
-1.0000000e+00
-1.0000000e+00
-1.0000000e+00
-1.0000000e+00
-1.0000000e+00
-1.0000000e+00
-1.0000000e+00
-1.0000000e+00
-1.0000000e+00
-1.0000000e+00
-1.0000000e+00
-1.0000000e+00
-1.0000000e+00
-1.0000000e+00
-1.0000000e+00
-1.0000000e+00
-1.0000000e+00
-1.0000000e+00
-1.0000000e+00
-1.0000000e+00
-1.0000000e+00
-1.0000000e+00
-1.0000000e+00
-1.0000000e+00
-1.0000000e+00
-1.0000000e+00
-1.0000000e+00
-1.0000000e+00
-1.0000000e+00
-1.0000000e+00
-1.0000000e+00
-1.0000000e+00
-1.0000000e+00
-1.0000000e+00
-1.0000000e+00
-1.0000000e+00
-1.0000000e+00
-1.0000000e+00
-1.0000000e+00
-1.0000000e+00
-1.0000000e+00
-1.0000000e+00
-1.0000000e+00
-1.0000000e+00
-1.0000000e+00
-1.0000000e+00
-1.0000000e+00
-1.0000000e+00
-1.0000000e+00
-1.0000000e+00
-1.0000000e+00
-1.0000000e+00
-1.0000000e+00
-1.0000000e+00
-1.0000000e+00
-1.0000000e+00
-1.0000000e+00
-1.0000000e+00
-1.0000000e+00
-1.0000000e+00
-1.0000000e+00
-1.0000000e+00
-1.0000000e+00
-1.0000000e+00
-1.0000000e+00
-1.0000000e+00
-1.0000000e+00
-1.0000000e+00
-1.0000000e+00
-1.0000000e+00
-1.0000000e+00
-1.0000000e+00
-1.0000000e+00
-1.0000000e+00
-1.0000000e+00
-1.0000000e+00
-1.0000000e+00
-1.0000000e+00
-1.0000000e+00
-1.0000000e+00
-1.0000000e+00
-1.0000000e+00
-1.0000000e+00
-1.0000000e+00
-1.0000000e+00
-1.0000000e+00
-1.0000000e+00
-1.0000000e+00
-1.0000000e+00
-1.0000000e+00
-1.0000000e+00
-1.0000000e+00
-1.0000000e+00
-1.0000000e+00
-1.0000000e+00
-1.0000000e+00
-1.0000000e+00
-1.0000000e+00
-1.0000000e+00
-1.0000000e+00
-1.0000000e+00
-1.0000000e+00
-1.0000000e+00
-1.0000000e+00
-1.0000000e+00
-1.0000000e+00
-1.0000000e+00
-1.0000000e+00
-1.0000000e+00
-1.0000000e+00
-1.0000000e+00
-1.0000000e+00
-1.0000000e+00
-1.0000000e+00
-1.0000000e+00
-1.0000000e+00
-1.0000000e+00
-1.0000000e+00
-1.0000000e+00
-1.0000000e+00
-1.0000000e+00
-1.0000000e+00
-1.0000000e+00
-1.0000000e+00
-1.0000000e+00
-1.0000000e+00
-1.0000000e+00
-1.0000000e+00
-1.0000000e+00
-1.0000000e+00
-1.0000000e+00
-1.0000000e+00
-1.0000000e+00
-1.0000000e+00
-1.0000000e+00
-1.0000000e+00
-1.0000000e+00
-1.0000000e+00
-1.0000000e+00
-1.0000000e+00
-1.0000000e+00
-1.0000000e+00
-1.0000000e+00
-1.0000000e+00
-1.0000000e+00
-1.0000000e+00
-1.0000000e+00
-1.0000000e+00
-1.0000000e+00
-1.0000000e+00
-1.0000000e+00
-1.0000000e+00
-1.0000000e+00
-1.0000000e+00
-1.0000000e+00
-1.0000000e+00
-1.0000000e+00
-1.0000000e+00
-1.0000000e+00
-1.0000000e+00
-1.0000000e+00
-1.0000000e+00
-1.0000000e+00
-1.0000000e+00
-1.0000000e+00
-1.0000000e+00
-1.0000000e+00
-1.0000000e+00
-1.0000000e+00
-1.0000000e+00
-1.0000000e+00
-1.0000000e+00
-1.0000000e+00
-1.0000000e+00
-1.0000000e+00
-1.0000000e+00
-1.0000000e+00
-1.0000000e+00
-1.0000000e+00
-1.0000000e+00
-1.0000000e+00
-1.0000000e+00
-1.0000000e+00
-1.0000000e+00
-1.0000000e+00
-1.0000000e+00
-1.0000000e+00
-1.0000000e+00
-1.0000000e+00
-1.0000000e+00
-1.0000000e+00
-1.0000000e+00
-1.0000000e+00
-1.0000000e+00
-1.0000000e+00
-1.0000000e+00
-1.0000000e+00
-1.0000000e+00
-1.0000000e+00
-1.0000000e+00
-1.0000000e+00
-1.0000000e+00
-1.0000000e+00
-1.0000000e+00
-1.0000000e+00
-1.0000000e+00
-1.0000000e+00
-1.0000000e+00
-1.0000000e+00
-1.0000000e+00
-1.0000000e+00
-1.0000000e+00
-1.0000000e+00
-1.0000000e+00
-1.0000000e+00
-1.0000000e+00
-1.0000000e+00
-1.0000000e+00
-1.0000000e+00
-1.0000000e+00
-1.0000000e+00
-1.0000000e+00
-1.0000000e+00
-1.0000000e+00
-1.0000000e+00
-1.0000000e+00
-1.0000000e+00
-1.0000000e+00
-1.0000000e+00
-1.0000000e+00
-1.0000000e+00
-1.0000000e+00
-1.0000000e+00
-1.0000000e+00
-1.0000000e+00
-1.0000000e+00
-1.0000000e+00
-1.0000000e+00
-1.0000000e+00
-1.0000000e+00
-1.0000000e+00
-1.0000000e+00
-1.0000000e+00
-1.0000000e+00
-1.0000000e+00
-1.0000000e+00
-1.0000000e+00
-1.0000000e+00
-1.0000000e+00
-1.0000000e+00
-1.0000000e+00
-1.0000000e+00
-1.0000000e+00
-1.0000000e+00
-1.0000000e+00
-1.0000000e+00
-1.0000000e+00
-1.0000000e+00
-1.0000000e+00
-1.0000000e+00
-1.0000000e+00
-1.0000000e+00
-1.0000000e+00
-1.0000000e+00
-1.0000000e+00
-1.0000000e+00
-1.0000000e+00
-1.0000000e+00
-1.0000000e+00
-1.0000000e+00
-1.0000000e+00
-1.0000000e+00
-1.0000000e+00
-1.0000000e+00
-1.0000000e+00
-1.0000000e+00
-1.0000000e+00
-1.0000000e+00
-1.0000000e+00
-1.0000000e+00
-1.0000000e+00
-1.0000000e+00
-1.0000000e+00
-1.0000000e+00
-1.0000000e+00
-1.0000000e+00
-1.0000000e+00
-1.0000000e+00
-1.0000000e+00
-1.0000000e+00
-1.0000000e+00
-1.0000000e+00
-1.0000000e+00
-1.0000000e+00
-1.0000000e+00
-1.0000000e+00
-1.0000000e+00
-1.0000000e+00
-1.0000000e+00
-1.0000000e+00
-1.0000000e+00
-1.0000000e+00
-1.0000000e+00
-1.0000000e+00
-1.0000000e+00
-1.0000000e+00
-1.0000000e+00
-1.0000000e+00
-1.0000000e+00
-1.0000000e+00
-1.0000000e+00
-1.0000000e+00
-1.0000000e+00
-1.0000000e+00
-1.0000000e+00
-1.0000000e+00
-1.0000000e+00
-1.0000000e+00
-1.0000000e+00
-1.0000000e+00
-1.0000000e+00
-1.0000000e+00
-1.0000000e+00
-1.0000000e+00
-1.0000000e+00
-1.0000000e+00
-1.0000000e+00
-1.0000000e+00
-1.0000000e+00
-1.0000000e+00
-1.0000000e+00
-1.0000000e+00
-1.0000000e+00
-1.0000000e+00
-1.0000000e+00
-1.0000000e+00
-1.0000000e+00
-1.0000000e+00
-1.0000000e+00
-1.0000000e+00
-1.0000000e+00
-1.0000000e+00
-1.0000000e+00
-1.0000000e+00
-1.0000000e+00
-1.0000000e+00
-1.0000000e+00
-1.0000000e+00
-1.0000000e+00
-1.0000000e+00
-1.0000000e+00
-1.0000000e+00
-1.0000000e+00
-1.0000000e+00
-1.0000000e+00
-1.0000000e+00
-1.0000000e+00
-1.0000000e+00
-1.0000000e+00
-1.0000000e+00
-1.0000000e+00
-1.0000000e+00
-1.0000000e+00
-1.0000000e+00
-1.0000000e+00
-1.0000000e+00
-1.0000000e+00
-1.0000000e+00
-1.0000000e+00
-1.0000000e+00
-1.0000000e+00
-1.0000000e+00
-1.0000000e+00
-1.0000000e+00
-1.0000000e+00
-1.0000000e+00
-1.0000000e+00
-1.0000000e+00
-1.0000000e+00
-1.0000000e+00
-1.0000000e+00
-1.0000000e+00
-1.0000000e+00
-1.0000000e+00
-1.0000000e+00
-1.0000000e+00
-1.0000000e+00
-1.0000000e+00
-1.0000000e+00
-1.0000000e+00
-1.0000000e+00
-1.0000000e+00
-1.0000000e+00
-1.0000000e+00
-1.0000000e+00
-1.0000000e+00
-1.0000000e+00
-1.0000000e+00
-1.0000000e+00
-1.0000000e+00
-1.0000000e+00
-1.0000000e+00
-1.0000000e+00
-1.0000000e+00
-1.0000000e+00
-1.0000000e+00
-1.0000000e+00
-1.0000000e+00
-1.0000000e+00
-1.0000000e+00
-1.0000000e+00
-1.0000000e+00
-1.0000000e+00
-1.0000000e+00
-1.0000000e+00
-1.0000000e+00
-1.0000000e+00
-1.0000000e+00
-1.0000000e+00
-1.0000000e+00
-1.0000000e+00
-1.0000000e+00
-1.0000000e+00
-1.0000000e+00
-1.0000000e+00
-1.0000000e+00
-1.0000000e+00
-1.0000000e+00
-1.0000000e+00
-1.0000000e+00
-1.0000000e+00
-1.0000000e+00
-1.0000000e+00
-1.0000000e+00
-1.0000000e+00
-1.0000000e+00
-1.0000000e+00
-1.0000000e+00
-1.0000000e+00
-1.0000000e+00
-1.0000000e+00
-1.0000000e+00
-1.0000000e+00
-1.0000000e+00
-1.0000000e+00
-1.0000000e+00
-1.0000000e+00
-1.0000000e+00
-1.0000000e+00
-1.0000000e+00
-1.0000000e+00
-1.0000000e+00
-1.0000000e+00
-1.0000000e+00
-1.0000000e+00
-1.0000000e+00
-1.0000000e+00
-1.0000000e+00
-1.0000000e+00
-1.0000000e+00
-1.0000000e+00
-1.0000000e+00
-1.0000000e+00
-1.0000000e+00
-1.0000000e+00
-1.0000000e+00
-1.0000000e+00
-1.0000000e+00
-1.0000000e+00
-1.0000000e+00
-1.0000000e+00
-1.0000000e+00
-1.0000000e+00
-1.0000000e+00
-1.0000000e+00
-1.0000000e+00
-1.0000000e+00
-1.0000000e+00
-1.0000000e+00
-1.0000000e+00
-1.0000000e+00
-1.0000000e+00
-1.0000000e+00
-1.0000000e+00
-1.0000000e+00
-1.0000000e+00
-1.0000000e+00
-1.0000000e+00
-1.0000000e+00
-1.0000000e+00
-1.0000000e+00
-1.0000000e+00
-1.0000000e+00
-1.0000000e+00
-1.0000000e+00
-1.0000000e+00
-1.0000000e+00
-1.0000000e+00
-1.0000000e+00
-1.0000000e+00
-1.0000000e+00
-1.0000000e+00
-1.0000000e+00
-1.0000000e+00
-1.0000000e+00
-1.0000000e+00
-1.0000000e+00
-1.0000000e+00
-1.0000000e+00
-1.0000000e+00
-1.0000000e+00
-1.0000000e+00
-1.0000000e+00
-1.0000000e+00
-1.0000000e+00
-1.0000000e+00
-1.0000000e+00
-1.0000000e+00
-1.0000000e+00
-1.0000000e+00
-1.0000000e+00
-1.0000000e+00
-1.0000000e+00
-1.0000000e+00
-1.0000000e+00
-1.0000000e+00
-1.0000000e+00
-1.0000000e+00
-1.0000000e+00
-1.0000000e+00
-1.0000000e+00
-1.0000000e+00
-1.0000000e+00
-1.0000000e+00
-1.0000000e+00
-1.0000000e+00
-1.0000000e+00
-1.0000000e+00
-1.0000000e+00
-1.0000000e+00
-1.0000000e+00
-1.0000000e+00
-1.0000000e+00
-1.0000000e+00
-1.0000000e+00
-1.0000000e+00
-1.0000000e+00
-1.0000000e+00
-1.0000000e+00
-1.0000000e+00
-1.0000000e+00
-1.0000000e+00
-1.0000000e+00
-1.0000000e+00
-1.0000000e+00
-1.0000000e+00
-1.0000000e+00
-1.0000000e+00
-1.0000000e+00
-1.0000000e+00
-1.0000000e+00
-1.0000000e+00
-1.0000000e+00
-1.0000000e+00
-1.0000000e+00
-1.0000000e+00
-1.0000000e+00
-1.0000000e+00
-1.0000000e+00
-1.0000000e+00
-1.0000000e+00
-1.0000000e+00
-1.0000000e+00
-1.0000000e+00
-1.0000000e+00
-1.0000000e+00
-1.0000000e+00
-1.0000000e+00
-1.0000000e+00
-1.0000000e+00
-1.0000000e+00
-1.0000000e+00
-1.0000000e+00
-1.0000000e+00
-1.0000000e+00
-1.0000000e+00
-1.0000000e+00
-1.0000000e+00
-1.0000000e+00
-1.0000000e+00
-1.0000000e+00
-1.0000000e+00
-1.0000000e+00
-1.0000000e+00
-1.0000000e+00
-1.0000000e+00
-1.0000000e+00
-1.0000000e+00
-1.0000000e+00
-1.0000000e+00
-1.0000000e+00
-1.0000000e+00
-1.0000000e+00
-1.0000000e+00
-1.0000000e+00
-1.0000000e+00
-1.0000000e+00
-1.0000000e+00
-1.0000000e+00
-1.0000000e+00
-1.0000000e+00
-1.0000000e+00
-1.0000000e+00
-1.0000000e+00
-1.0000000e+00
-1.0000000e+00
-1.0000000e+00
-1.0000000e+00
-1.0000000e+00
-1.0000000e+00
-1.0000000e+00
-1.0000000e+00
-1.0000000e+00
-1.0000000e+00
-1.0000000e+00
-1.0000000e+00
-1.0000000e+00
-1.0000000e+00
-1.0000000e+00
-1.0000000e+00
-1.0000000e+00
-1.0000000e+00
-1.0000000e+00
-1.0000000e+00
-1.0000000e+00
-1.0000000e+00
-1.0000000e+00
-1.0000000e+00
-1.0000000e+00
-1.0000000e+00
-1.0000000e+00
-1.0000000e+00
-1.0000000e+00
-1.0000000e+00
-1.0000000e+00
-1.0000000e+00
-1.0000000e+00
-1.0000000e+00
-1.0000000e+00
-1.0000000e+00
-1.0000000e+00
-1.0000000e+00
-1.0000000e+00
-1.0000000e+00
-1.0000000e+00
-1.0000000e+00
-1.0000000e+00
-1.0000000e+00
-1.0000000e+00
-1.0000000e+00
-1.0000000e+00
-1.0000000e+00
-1.0000000e+00
-1.0000000e+00
-1.0000000e+00
-1.0000000e+00
-1.0000000e+00
-1.0000000e+00
-1.0000000e+00
-1.0000000e+00
-1.0000000e+00
-1.0000000e+00
-1.0000000e+00
-1.0000000e+00
-1.0000000e+00
-1.0000000e+00
-1.0000000e+00
-1.0000000e+00
-1.0000000e+00
-1.0000000e+00
-1.0000000e+00
-1.0000000e+00
-1.0000000e+00
-1.0000000e+00
-1.0000000e+00
-1.0000000e+00
-1.0000000e+00
-1.0000000e+00
-1.0000000e+00
-1.0000000e+00
-1.0000000e+00
-1.0000000e+00
-1.0000000e+00
-1.0000000e+00
-1.0000000e+00
-1.0000000e+00
-1.0000000e+00
-1.0000000e+00
-1.0000000e+00
-1.0000000e+00
-1.0000000e+00
-1.0000000e+00
-1.0000000e+00
-1.0000000e+00
-1.0000000e+00
-1.0000000e+00
-1.0000000e+00
-1.0000000e+00
-1.0000000e+00
-1.0000000e+00
-1.0000000e+00
-1.0000000e+00
-1.0000000e+00
-1.0000000e+00
-1.0000000e+00
-1.0000000e+00
-1.0000000e+00
-1.0000000e+00
-1.0000000e+00
-1.0000000e+00
-1.0000000e+00
-1.0000000e+00
-1.0000000e+00
-1.0000000e+00
-1.0000000e+00
-1.0000000e+00
-1.0000000e+00
-1.0000000e+00
-1.0000000e+00
-1.0000000e+00
-1.0000000e+00
-1.0000000e+00
-1.0000000e+00
-1.0000000e+00
-1.0000000e+00
-1.0000000e+00
-1.0000000e+00
-1.0000000e+00
-1.0000000e+00
-1.0000000e+00
-1.0000000e+00
-1.0000000e+00
-1.0000000e+00
-1.0000000e+00
-1.0000000e+00
-1.0000000e+00
-1.0000000e+00
-1.0000000e+00
-1.0000000e+00
-1.0000000e+00
-1.0000000e+00
-1.0000000e+00
-1.0000000e+00
-1.0000000e+00
-1.0000000e+00
-1.0000000e+00
-1.0000000e+00
-1.0000000e+00
-1.0000000e+00
-1.0000000e+00
-1.0000000e+00
-1.0000000e+00
-1.0000000e+00
-1.0000000e+00
-1.0000000e+00
-1.0000000e+00
-1.0000000e+00
-1.0000000e+00
-1.0000000e+00
-1.0000000e+00
-1.0000000e+00
-1.0000000e+00
-1.0000000e+00
-1.0000000e+00
-1.0000000e+00
-1.0000000e+00
-1.0000000e+00
-1.0000000e+00
-1.0000000e+00
-1.0000000e+00
-1.0000000e+00
-1.0000000e+00
-1.0000000e+00
-1.0000000e+00
-1.0000000e+00
-1.0000000e+00
-1.0000000e+00
-1.0000000e+00
-1.0000000e+00
-1.0000000e+00
-1.0000000e+00
-1.0000000e+00
-1.0000000e+00
-1.0000000e+00
-1.0000000e+00
-1.0000000e+00
-1.0000000e+00
-1.0000000e+00
-1.0000000e+00
-1.0000000e+00
-1.0000000e+00
-1.0000000e+00
-1.0000000e+00
-1.0000000e+00
-1.0000000e+00
-1.0000000e+00
-1.0000000e+00
-1.0000000e+00
-1.0000000e+00
-1.0000000e+00
-1.0000000e+00
-1.0000000e+00
-1.0000000e+00
-1.0000000e+00
-1.0000000e+00
-1.0000000e+00
-1.0000000e+00
-1.0000000e+00
-1.0000000e+00
-1.0000000e+00
-1.0000000e+00
-1.0000000e+00
-1.0000000e+00
-1.0000000e+00
-1.0000000e+00
-1.0000000e+00
-1.0000000e+00
-1.0000000e+00
-1.0000000e+00
-1.0000000e+00
-1.0000000e+00
-1.0000000e+00
-1.0000000e+00
-1.0000000e+00
-1.0000000e+00
-1.0000000e+00
-1.0000000e+00
-1.0000000e+00
-1.0000000e+00
-1.0000000e+00
-1.0000000e+00
-1.0000000e+00
-1.0000000e+00
-1.0000000e+00
-1.0000000e+00
-1.0000000e+00
-1.0000000e+00
-1.0000000e+00
-1.0000000e+00
-1.0000000e+00
-1.0000000e+00
-1.0000000e+00
-1.0000000e+00
-1.0000000e+00
-1.0000000e+00
-1.0000000e+00
-1.0000000e+00
-1.0000000e+00
-1.0000000e+00
-1.0000000e+00
-1.0000000e+00
-1.0000000e+00
-1.0000000e+00
-1.0000000e+00
-1.0000000e+00
-1.0000000e+00
-1.0000000e+00
-1.0000000e+00
-1.0000000e+00
-1.0000000e+00
-1.0000000e+00
-1.0000000e+00
-1.0000000e+00
-1.0000000e+00
-1.0000000e+00
-1.0000000e+00
-1.0000000e+00
-1.0000000e+00
-1.0000000e+00
-1.0000000e+00
-1.0000000e+00
-1.0000000e+00
-1.0000000e+00
-1.0000000e+00
-1.0000000e+00
-1.0000000e+00
-1.0000000e+00
-1.0000000e+00
-1.0000000e+00
-1.0000000e+00
-1.0000000e+00
-1.0000000e+00
-1.0000000e+00
-1.0000000e+00
-1.0000000e+00
-1.0000000e+00
-1.0000000e+00
-1.0000000e+00
-1.0000000e+00
-1.0000000e+00
-1.0000000e+00
-1.0000000e+00
-1.0000000e+00
-1.0000000e+00
-1.0000000e+00
-1.0000000e+00
-1.0000000e+00
-1.0000000e+00
-1.0000000e+00
-1.0000000e+00
-1.0000000e+00
-1.0000000e+00
-1.0000000e+00
-1.0000000e+00
-1.0000000e+00
-1.0000000e+00
-1.0000000e+00
-1.0000000e+00
-1.0000000e+00
-1.0000000e+00
-1.0000000e+00
-1.0000000e+00
-1.0000000e+00
-1.0000000e+00
-1.0000000e+00
-1.0000000e+00
-1.0000000e+00
-1.0000000e+00
-1.0000000e+00
-1.0000000e+00
-1.0000000e+00
-1.0000000e+00
-1.0000000e+00
-1.0000000e+00
-1.0000000e+00
-1.0000000e+00
-1.0000000e+00
-1.0000000e+00
-1.0000000e+00
-1.0000000e+00
-1.0000000e+00
-1.0000000e+00
-1.0000000e+00
-1.0000000e+00
-1.0000000e+00
-1.0000000e+00
-1.0000000e+00
-1.0000000e+00
-1.0000000e+00
-1.0000000e+00
-1.0000000e+00
-1.0000000e+00
-1.0000000e+00
-1.0000000e+00
-1.0000000e+00
-1.0000000e+00
-1.0000000e+00
-1.0000000e+00
-1.0000000e+00
-1.0000000e+00
-1.0000000e+00
-1.0000000e+00
-1.0000000e+00
-1.0000000e+00
-1.0000000e+00
-1.0000000e+00
-1.0000000e+00
-1.0000000e+00
-1.0000000e+00
-1.0000000e+00
-1.0000000e+00
-1.0000000e+00
-1.0000000e+00
-1.0000000e+00
-1.0000000e+00
-1.0000000e+00
-1.0000000e+00
-1.0000000e+00
-1.0000000e+00
-1.0000000e+00
-1.0000000e+00
-1.0000000e+00
-1.0000000e+00
-1.0000000e+00
-1.0000000e+00
-1.0000000e+00
-1.0000000e+00
-1.0000000e+00
-1.0000000e+00
-1.0000000e+00
-1.0000000e+00
-1.0000000e+00
-1.0000000e+00
-1.0000000e+00
-1.0000000e+00
-1.0000000e+00
-1.0000000e+00
-1.0000000e+00
-1.0000000e+00
-1.0000000e+00
-1.0000000e+00
-1.0000000e+00
-1.0000000e+00
-1.0000000e+00
-1.0000000e+00
-1.0000000e+00
-1.0000000e+00
-1.0000000e+00
-1.0000000e+00
-1.0000000e+00
-1.0000000e+00
-1.0000000e+00
-1.0000000e+00
-1.0000000e+00
-1.0000000e+00
-1.0000000e+00
-1.0000000e+00
-1.0000000e+00
-1.0000000e+00
-1.0000000e+00
-1.0000000e+00
-1.0000000e+00
-1.0000000e+00
-1.0000000e+00
-1.0000000e+00
-1.0000000e+00
-1.0000000e+00
-1.0000000e+00
-1.0000000e+00
-1.0000000e+00
-1.0000000e+00
-1.0000000e+00
-1.0000000e+00
-1.0000000e+00
-1.0000000e+00
-1.0000000e+00
-1.0000000e+00
-1.0000000e+00
-1.0000000e+00
-1.0000000e+00
-1.0000000e+00
-1.0000000e+00
-1.0000000e+00
-1.0000000e+00
-1.0000000e+00
-1.0000000e+00
-1.0000000e+00
-1.0000000e+00
-1.0000000e+00
-1.0000000e+00
-1.0000000e+00
-1.0000000e+00
-1.0000000e+00
-1.0000000e+00
-1.0000000e+00
-1.0000000e+00
-1.0000000e+00
-1.0000000e+00
-1.0000000e+00
-1.0000000e+00
-1.0000000e+00
-1.0000000e+00
-1.0000000e+00
-1.0000000e+00
-1.0000000e+00
-1.0000000e+00
-1.0000000e+00
-1.0000000e+00
-1.0000000e+00
-1.0000000e+00
-1.0000000e+00
-1.0000000e+00
-1.0000000e+00
-1.0000000e+00
-1.0000000e+00
-1.0000000e+00
-1.0000000e+00
-1.0000000e+00
-1.0000000e+00
-1.0000000e+00
-1.0000000e+00
-1.0000000e+00
-1.0000000e+00
-1.0000000e+00
-1.0000000e+00
-1.0000000e+00
-1.0000000e+00
-1.0000000e+00
-1.0000000e+00
-1.0000000e+00
-1.0000000e+00
-1.0000000e+00
-1.0000000e+00
-1.0000000e+00
-1.0000000e+00
-1.0000000e+00
-1.0000000e+00
-1.0000000e+00
-1.0000000e+00
-1.0000000e+00
-1.0000000e+00
-1.0000000e+00
-1.0000000e+00
-1.0000000e+00
-1.0000000e+00
-1.0000000e+00
-1.0000000e+00
-1.0000000e+00
-1.0000000e+00
-1.0000000e+00
-1.0000000e+00
-1.0000000e+00
-1.0000000e+00
-1.0000000e+00
-1.0000000e+00
-1.0000000e+00
-1.0000000e+00
-1.0000000e+00
-1.0000000e+00
-1.0000000e+00
-1.0000000e+00
-1.0000000e+00
-1.0000000e+00
-1.0000000e+00
-1.0000000e+00
-1.0000000e+00
-1.0000000e+00
-1.0000000e+00
-1.0000000e+00
-1.0000000e+00
-1.0000000e+00
-1.0000000e+00
-1.0000000e+00
-1.0000000e+00
-1.0000000e+00
-1.0000000e+00
-1.0000000e+00
-1.0000000e+00
-1.0000000e+00
-1.0000000e+00
-1.0000000e+00
-1.0000000e+00
-1.0000000e+00
-1.0000000e+00
-1.0000000e+00
-1.0000000e+00
-1.0000000e+00
-1.0000000e+00
-1.0000000e+00
-1.0000000e+00
-1.0000000e+00
-1.0000000e+00
-1.0000000e+00
-1.0000000e+00
-1.0000000e+00
-1.0000000e+00
-1.0000000e+00
-1.0000000e+00
-1.0000000e+00
-1.0000000e+00
-1.0000000e+00
-1.0000000e+00
-1.0000000e+00
-1.0000000e+00
-1.0000000e+00
-1.0000000e+00
-1.0000000e+00
-1.0000000e+00
-1.0000000e+00
-1.0000000e+00
-1.0000000e+00
-1.0000000e+00
-1.0000000e+00
-1.0000000e+00
-1.0000000e+00
-1.0000000e+00
-1.0000000e+00
-1.0000000e+00
-1.0000000e+00
-1.0000000e+00
-1.0000000e+00
-1.0000000e+00
-1.0000000e+00
-1.0000000e+00
-1.0000000e+00
-1.0000000e+00
-1.0000000e+00
-1.0000000e+00
-1.0000000e+00
-1.0000000e+00
-1.0000000e+00
-1.0000000e+00
-1.0000000e+00
-1.0000000e+00
-1.0000000e+00
-1.0000000e+00
-1.0000000e+00
-1.0000000e+00
-1.0000000e+00
-1.0000000e+00
-1.0000000e+00
-1.0000000e+00
-1.0000000e+00
-1.0000000e+00
-1.0000000e+00
-1.0000000e+00
-1.0000000e+00
-1.0000000e+00
-1.0000000e+00
-1.0000000e+00
-1.0000000e+00
-1.0000000e+00
-1.0000000e+00
-1.0000000e+00
-1.0000000e+00
-1.0000000e+00
-1.0000000e+00
-1.0000000e+00
-1.0000000e+00
-1.0000000e+00
-1.0000000e+00
-1.0000000e+00
-1.0000000e+00
-1.0000000e+00
-1.0000000e+00
-1.0000000e+00
-1.0000000e+00
-1.0000000e+00
-1.0000000e+00
MASTER 1 2292  float
0.0000000e+00
-1.0000000e+00
0.0000000e+00
0.0000000e+00
-1.0000000e+00
-1.0000000e+00
-1.0000000e+00
0.0000000e+00
0.0000000e+00
-1.0000000e+00
0.0000000e+00
0.0000000e+00
-1.0000000e+00
-1.0000000e+00
-1.0000000e+00
0.0000000e+00
-1.0000000e+00
-1.0000000e+00
-1.0000000e+00
-1.0000000e+00
0.0000000e+00
-1.0000000e+00
-1.0000000e+00
0.0000000e+00
-1.0000000e+00
0.0000000e+00
0.0000000e+00
-1.0000000e+00
-1.0000000e+00
-1.0000000e+00
-1.0000000e+00
-1.0000000e+00
-1.0000000e+00
-1.0000000e+00
0.0000000e+00
-1.0000000e+00
0.0000000e+00
-1.0000000e+00
-1.0000000e+00
-1.0000000e+00
-1.0000000e+00
0.0000000e+00
-1.0000000e+00
-1.0000000e+00
-1.0000000e+00
-1.0000000e+00
-1.0000000e+00
-1.0000000e+00
-1.0000000e+00
-1.0000000e+00
-1.0000000e+00
0.0000000e+00
-1.0000000e+00
0.0000000e+00
-1.0000000e+00
0.0000000e+00
0.0000000e+00
-1.0000000e+00
-1.0000000e+00
-1.0000000e+00
0.0000000e+00
-1.0000000e+00
-1.0000000e+00
-1.0000000e+00
-1.0000000e+00
-1.0000000e+00
-1.0000000e+00
0.0000000e+00
0.0000000e+00
-1.0000000e+00
-1.0000000e+00
-1.0000000e+00
-1.0000000e+00
-1.0000000e+00
-1.0000000e+00
-1.0000000e+00
-1.0000000e+00
0.0000000e+00
-1.0000000e+00
-1.0000000e+00
-1.0000000e+00
-1.0000000e+00
0.0000000e+00
-1.0000000e+00
0.0000000e+00
0.0000000e+00
-1.0000000e+00
-1.0000000e+00
-1.0000000e+00
-1.0000000e+00
-1.0000000e+00
-1.0000000e+00
-1.0000000e+00
0.0000000e+00
-1.0000000e+00
-1.0000000e+00
0.0000000e+00
-1.0000000e+00
-1.0000000e+00
-1.0000000e+00
-1.0000000e+00
-1.0000000e+00
-1.0000000e+00
0.0000000e+00
0.0000000e+00
-1.0000000e+00
0.0000000e+00
0.0000000e+00
-1.0000000e+00
-1.0000000e+00
-1.0000000e+00
-1.0000000e+00
-1.0000000e+00
-1.0000000e+00
-1.0000000e+00
-1.0000000e+00
-1.0000000e+00
0.0000000e+00
-1.0000000e+00
0.0000000e+00
-1.0000000e+00
-1.0000000e+00
-1.0000000e+00
-1.0000000e+00
-1.0000000e+00
0.0000000e+00
-1.0000000e+00
-1.0000000e+00
-1.0000000e+00
-1.0000000e+00
-1.0000000e+00
0.0000000e+00
0.0000000e+00
-1.0000000e+00
-1.0000000e+00
-1.0000000e+00
-1.0000000e+00
0.0000000e+00
-1.0000000e+00
-1.0000000e+00
-1.0000000e+00
0.0000000e+00
0.0000000e+00
0.0000000e+00
-1.0000000e+00
-1.0000000e+00
-1.0000000e+00
-1.0000000e+00
0.0000000e+00
0.0000000e+00
-1.0000000e+00
-1.0000000e+00
-1.0000000e+00
-1.0000000e+00
-1.0000000e+00
-1.0000000e+00
-1.0000000e+00
0.0000000e+00
0.0000000e+00
0.0000000e+00
-1.0000000e+00
-1.0000000e+00
-1.0000000e+00
-1.0000000e+00
0.0000000e+00
-1.0000000e+00
0.0000000e+00
-1.0000000e+00
-1.0000000e+00
0.0000000e+00
-1.0000000e+00
0.0000000e+00
-1.0000000e+00
-1.0000000e+00
-1.0000000e+00
-1.0000000e+00
-1.0000000e+00
0.0000000e+00
-1.0000000e+00
-1.0000000e+00
0.0000000e+00
-1.0000000e+00
-1.0000000e+00
-1.0000000e+00
-1.0000000e+00
0.0000000e+00
-1.0000000e+00
0.0000000e+00
-1.0000000e+00
-1.0000000e+00
-1.0000000e+00
0.0000000e+00
0.0000000e+00
-1.0000000e+00
-1.0000000e+00
-1.0000000e+00
-1.0000000e+00
-1.0000000e+00
-1.0000000e+00
-1.0000000e+00
-1.0000000e+00
-1.0000000e+00
0.0000000e+00
-1.0000000e+00
-1.0000000e+00
-1.0000000e+00
-1.0000000e+00
0.0000000e+00
0.0000000e+00
-1.0000000e+00
-1.0000000e+00
0.0000000e+00
0.0000000e+00
-1.0000000e+00
-1.0000000e+00
-1.0000000e+00
-1.0000000e+00
-1.0000000e+00
-1.0000000e+00
0.0000000e+00
-1.0000000e+00
-1.0000000e+00
-1.0000000e+00
-1.0000000e+00
-1.0000000e+00
-1.0000000e+00
0.0000000e+00
-1.0000000e+00
0.0000000e+00
-1.0000000e+00
-1.0000000e+00
0.0000000e+00
-1.0000000e+00
-1.0000000e+00
-1.0000000e+00
-1.0000000e+00
0.0000000e+00
-1.0000000e+00
-1.0000000e+00
-1.0000000e+00
-1.0000000e+00
-1.0000000e+00
-1.0000000e+00
0.0000000e+00
-1.0000000e+00
0.0000000e+00
0.0000000e+00
-1.0000000e+00
0.0000000e+00
-1.0000000e+00
-1.0000000e+00
-1.0000000e+00
-1.0000000e+00
-1.0000000e+00
0.0000000e+00
-1.0000000e+00
-1.0000000e+00
-1.0000000e+00
-1.0000000e+00
-1.0000000e+00
-1.0000000e+00
0.0000000e+00
-1.0000000e+00
-1.0000000e+00
-1.0000000e+00
-1.0000000e+00
-1.0000000e+00
0.0000000e+00
0.0000000e+00
0.0000000e+00
-1.0000000e+00
-1.0000000e+00
-1.0000000e+00
0.0000000e+00
-1.0000000e+00
-1.0000000e+00
-1.0000000e+00
-1.0000000e+00
-1.0000000e+00
-1.0000000e+00
-1.0000000e+00
0.0000000e+00
-1.0000000e+00
-1.0000000e+00
-1.0000000e+00
-1.0000000e+00
0.0000000e+00
-1.0000000e+00
-1.0000000e+00
-1.0000000e+00
-1.0000000e+00
0.0000000e+00
-1.0000000e+00
0.0000000e+00
0.0000000e+00
-1.0000000e+00
0.0000000e+00
-1.0000000e+00
-1.0000000e+00
-1.0000000e+00
-1.0000000e+00
-1.0000000e+00
-1.0000000e+00
-1.0000000e+00
-1.0000000e+00
0.0000000e+00
-1.0000000e+00
-1.0000000e+00
0.0000000e+00
-1.0000000e+00
-1.0000000e+00
-1.0000000e+00
-1.0000000e+00
-1.0000000e+00
-1.0000000e+00
-1.0000000e+00
0.0000000e+00
0.0000000e+00
-1.0000000e+00
0.0000000e+00
0.0000000e+00
-1.0000000e+00
-1.0000000e+00
0.0000000e+00
-1.0000000e+00
-1.0000000e+00
-1.0000000e+00
-1.0000000e+00
-1.0000000e+00
-1.0000000e+00
-1.0000000e+00
-1.0000000e+00
0.0000000e+00
-1.0000000e+00
0.0000000e+00
-1.0000000e+00
-1.0000000e+00
-1.0000000e+00
-1.0000000e+00
0.0000000e+00
-1.0000000e+00
-1.0000000e+00
0.0000000e+00
0.0000000e+00
-1.0000000e+00
-1.0000000e+00
-1.0000000e+00
0.0000000e+00
-1.0000000e+00
-1.0000000e+00
-1.0000000e+00
-1.0000000e+00
-1.0000000e+00
-1.0000000e+00
-1.0000000e+00
-1.0000000e+00
0.0000000e+00
0.0000000e+00
-1.0000000e+00
-1.0000000e+00
-1.0000000e+00
-1.0000000e+00
-1.0000000e+00
0.0000000e+00
-1.0000000e+00
-1.0000000e+00
-1.0000000e+00
-1.0000000e+00
0.0000000e+00
-1.0000000e+00
0.0000000e+00
0.0000000e+00
-1.0000000e+00
-1.0000000e+00
-1.0000000e+00
-1.0000000e+00
-1.0000000e+00
-1.0000000e+00
0.0000000e+00
-1.0000000e+00
-1.0000000e+00
-1.0000000e+00
-1.0000000e+00
-1.0000000e+00
0.0000000e+00
-1.0000000e+00
-1.0000000e+00
0.0000000e+00
0.0000000e+00
-1.0000000e+00
0.0000000e+00
-1.0000000e+00
0.0000000e+00
-1.0000000e+00
-1.0000000e+00
-1.0000000e+00
-1.0000000e+00
-1.0000000e+00
-1.0000000e+00
-1.0000000e+00
-1.0000000e+00
-1.0000000e+00
0.0000000e+00
-1.0000000e+00
-1.0000000e+00
-1.0000000e+00
-1.0000000e+00
-1.0000000e+00
-1.0000000e+00
-1.0000000e+00
0.0000000e+00
0.0000000e+00
0.0000000e+00
-1.0000000e+00
-1.0000000e+00
0.0000000e+00
-1.0000000e+00
-1.0000000e+00
0.0000000e+00
-1.0000000e+00
-1.0000000e+00
-1.0000000e+00
-1.0000000e+00
-1.0000000e+00
-1.0000000e+00
0.0000000e+00
-1.0000000e+00
-1.0000000e+00
0.0000000e+00
-1.0000000e+00
-1.0000000e+00
-1.0000000e+00
0.0000000e+00
-1.0000000e+00
-1.0000000e+00
0.0000000e+00
-1.0000000e+00
-1.0000000e+00
0.0000000e+00
-1.0000000e+00
-1.0000000e+00
-1.0000000e+00
-1.0000000e+00
-1.0000000e+00
-1.0000000e+00
0.0000000e+00
-1.0000000e+00
0.0000000e+00
-1.0000000e+00
-1.0000000e+00
-1.0000000e+00
-1.0000000e+00
-1.0000000e+00
-1.0000000e+00
0.0000000e+00
-1.0000000e+00
-1.0000000e+00
-1.0000000e+00
-1.0000000e+00
0.0000000e+00
-1.0000000e+00
0.0000000e+00
0.0000000e+00
-1.0000000e+00
-1.0000000e+00
-1.0000000e+00
-1.0000000e+00
-1.0000000e+00
-1.0000000e+00
0.0000000e+00
-1.0000000e+00
-1.0000000e+00
-1.0000000e+00
-1.0000000e+00
0.0000000e+00
-1.0000000e+00
0.0000000e+00
0.0000000e+00
-1.0000000e+00
0.0000000e+00
-1.0000000e+00
-1.0000000e+00
-1.0000000e+00
-1.0000000e+00
-1.0000000e+00
-1.0000000e+00
-1.0000000e+00
0.0000000e+00
-1.0000000e+00
-1.0000000e+00
-1.0000000e+00
0.0000000e+00
-1.0000000e+00
0.0000000e+00
-1.0000000e+00
-1.0000000e+00
-1.0000000e+00
-1.0000000e+00
-1.0000000e+00
-1.0000000e+00
-1.0000000e+00
0.0000000e+00
0.0000000e+00
-1.0000000e+00
-1.0000000e+00
0.0000000e+00
0.0000000e+00
-1.0000000e+00
-1.0000000e+00
-1.0000000e+00
-1.0000000e+00
-1.0000000e+00
-1.0000000e+00
-1.0000000e+00
-1.0000000e+00
0.0000000e+00
-1.0000000e+00
-1.0000000e+00
-1.0000000e+00
-1.0000000e+00
-1.0000000e+00
-1.0000000e+00
-1.0000000e+00
-1.0000000e+00
-1.0000000e+00
-1.0000000e+00
0.0000000e+00
-1.0000000e+00
-1.0000000e+00
0.0000000e+00
-1.0000000e+00
-1.0000000e+00
-1.0000000e+00
0.0000000e+00
-1.0000000e+00
0.0000000e+00
-1.0000000e+00
-1.0000000e+00
-1.0000000e+00
-1.0000000e+00
0.0000000e+00
-1.0000000e+00
0.0000000e+00
-1.0000000e+00
-1.0000000e+00
-1.0000000e+00
-1.0000000e+00
-1.0000000e+00
-1.0000000e+00
-1.0000000e+00
-1.0000000e+00
0.0000000e+00
-1.0000000e+00
-1.0000000e+00
-1.0000000e+00
-1.0000000e+00
0.0000000e+00
0.0000000e+00
0.0000000e+00
-1.0000000e+00
-1.0000000e+00
-1.0000000e+00
-1.0000000e+00
-1.0000000e+00
-1.0000000e+00
-1.0000000e+00
-1.0000000e+00
-1.0000000e+00
0.0000000e+00
-1.0000000e+00
-1.0000000e+00
-1.0000000e+00
-1.0000000e+00
-1.0000000e+00
0.0000000e+00
-1.0000000e+00
-1.0000000e+00
-1.0000000e+00
-1.0000000e+00
-1.0000000e+00
-1.0000000e+00
-1.0000000e+00
-1.0000000e+00
-1.0000000e+00
0.0000000e+00
-1.0000000e+00
0.0000000e+00
-1.0000000e+00
0.0000000e+00
-1.0000000e+00
-1.0000000e+00
-1.0000000e+00
0.0000000e+00
-1.0000000e+00
-1.0000000e+00
-1.0000000e+00
0.0000000e+00
-1.0000000e+00
-1.0000000e+00
-1.0000000e+00
0.0000000e+00
-1.0000000e+00
-1.0000000e+00
-1.0000000e+00
-1.0000000e+00
-1.0000000e+00
-1.0000000e+00
-1.0000000e+00
-1.0000000e+00
-1.0000000e+00
-1.0000000e+00
-1.0000000e+00
-1.0000000e+00
0.0000000e+00
-1.0000000e+00
0.0000000e+00
-1.0000000e+00
-1.0000000e+00
-1.0000000e+00
0.0000000e+00
-1.0000000e+00
0.0000000e+00
-1.0000000e+00
-1.0000000e+00
-1.0000000e+00
-1.0000000e+00
0.0000000e+00
-1.0000000e+00
0.0000000e+00
-1.0000000e+00
-1.0000000e+00
1.0000000e+00
-1.0000000e+00
1.0000000e+00
-1.0000000e+00
1.0000000e+00
-1.0000000e+00
1.0000000e+00
1.0000000e+00
1.0000000e+00
1.0000000e+00
1.0000000e+00
1.0000000e+00
-1.0000000e+00
1.0000000e+00
0.0000000e+00
-1.0000000e+00
0.0000000e+00
1.0000000e+00
-1.0000000e+00
-1.0000000e+00
-1.0000000e+00
1.0000000e+00
-1.0000000e+00
1.0000000e+00
-1.0000000e+00
-1.0000000e+00
1.0000000e+00
1.0000000e+00
-1.0000000e+00
1.0000000e+00
-1.0000000e+00
-1.0000000e+00
0.0000000e+00
-1.0000000e+00
-1.0000000e+00
1.0000000e+00
0.0000000e+00
0.0000000e+00
-1.0000000e+00
-1.0000000e+00
-1.0000000e+00
-1.0000000e+00
0.0000000e+00
1.0000000e+00
1.0000000e+00
-1.0000000e+00
1.0000000e+00
-1.0000000e+00
1.0000000e+00
1.0000000e+00
1.0000000e+00
0.0000000e+00
-1.0000000e+00
-1.0000000e+00
1.0000000e+00
-1.0000000e+00
-1.0000000e+00
-1.0000000e+00
-1.0000000e+00
1.0000000e+00
1.0000000e+00
-1.0000000e+00
0.0000000e+00
-1.0000000e+00
0.0000000e+00
1.0000000e+00
-1.0000000e+00
0.0000000e+00
-1.0000000e+00
-1.0000000e+00
-1.0000000e+00
-1.0000000e+00
0.0000000e+00
-1.0000000e+00
-1.0000000e+00
-1.0000000e+00
-1.0000000e+00
-1.0000000e+00
-1.0000000e+00
-1.0000000e+00
1.0000000e+00
-1.0000000e+00
-1.0000000e+00
-1.0000000e+00
1.0000000e+00
-1.0000000e+00
-1.0000000e+00
-1.0000000e+00
1.0000000e+00
1.0000000e+00
0.0000000e+00
0.0000000e+00
1.0000000e+00
-1.0000000e+00
1.0000000e+00
0.0000000e+00
-1.0000000e+00
1.0000000e+00
-1.0000000e+00
-1.0000000e+00
1.0000000e+00
-1.0000000e+00
1.0000000e+00
-1.0000000e+00
-1.0000000e+00
0.0000000e+00
-1.0000000e+00
1.0000000e+00
1.0000000e+00
-1.0000000e+00
-1.0000000e+00
-1.0000000e+00
0.0000000e+00
0.0000000e+00
-1.0000000e+00
1.0000000e+00
-1.0000000e+00
1.0000000e+00
-1.0000000e+00
1.0000000e+00
-1.0000000e+00
-1.0000000e+00
0.0000000e+00
-1.0000000e+00
-1.0000000e+00
-1.0000000e+00
1.0000000e+00
-1.0000000e+00
-1.0000000e+00
-1.0000000e+00
-1.0000000e+00
-1.0000000e+00
0.0000000e+00
0.0000000e+00
0.0000000e+00
1.0000000e+00
-1.0000000e+00
-1.0000000e+00
-1.0000000e+00
-1.0000000e+00
-1.0000000e+00
-1.0000000e+00
0.0000000e+00
-1.0000000e+00
-1.0000000e+00
1.0000000e+00
1.0000000e+00
-1.0000000e+00
1.0000000e+00
-1.0000000e+00
0.0000000e+00
-1.0000000e+00
-1.0000000e+00
-1.0000000e+00
0.0000000e+00
1.0000000e+00
-1.0000000e+00
-1.0000000e+00
-1.0000000e+00
-1.0000000e+00
-1.0000000e+00
-1.0000000e+00
0.0000000e+00
-1.0000000e+00
-1.0000000e+00
0.0000000e+00
-1.0000000e+00
-1.0000000e+00
-1.0000000e+00
1.0000000e+00
1.0000000e+00
1.0000000e+00
-1.0000000e+00
1.0000000e+00
-1.0000000e+00
-1.0000000e+00
1.0000000e+00
1.0000000e+00
0.0000000e+00
0.0000000e+00
1.0000000e+00
1.0000000e+00
0.0000000e+00
-1.0000000e+00
-1.0000000e+00
-1.0000000e+00
0.0000000e+00
-1.0000000e+00
1.0000000e+00
-1.0000000e+00
1.0000000e+00
-1.0000000e+00
1.0000000e+00
-1.0000000e+00
-1.0000000e+00
-1.0000000e+00
0.0000000e+00
-1.0000000e+00
-1.0000000e+00
0.0000000e+00
0.0000000e+00
-1.0000000e+00
-1.0000000e+00
0.0000000e+00
1.0000000e+00
-1.0000000e+00
-1.0000000e+00
-1.0000000e+00
-1.0000000e+00
-1.0000000e+00
-1.0000000e+00
0.0000000e+00
-1.0000000e+00
-1.0000000e+00
-1.0000000e+00
-1.0000000e+00
-1.0000000e+00
1.0000000e+00
-1.0000000e+00
0.0000000e+00
0.0000000e+00
1.0000000e+00
-1.0000000e+00
0.0000000e+00
1.0000000e+00
1.0000000e+00
0.0000000e+00
1.0000000e+00
-1.0000000e+00
1.0000000e+00
1.0000000e+00
-1.0000000e+00
1.0000000e+00
-1.0000000e+00
0.0000000e+00
-1.0000000e+00
1.0000000e+00
0.0000000e+00
-1.0000000e+00
1.0000000e+00
0.0000000e+00
0.0000000e+00
-1.0000000e+00
-1.0000000e+00
-1.0000000e+00
0.0000000e+00
-1.0000000e+00
1.0000000e+00
-1.0000000e+00
0.0000000e+00
-1.0000000e+00
-1.0000000e+00
-1.0000000e+00
-1.0000000e+00
0.0000000e+00
-1.0000000e+00
0.0000000e+00
1.0000000e+00
-1.0000000e+00
0.0000000e+00
-1.0000000e+00
1.0000000e+00
0.0000000e+00
0.0000000e+00
-1.0000000e+00
-1.0000000e+00
0.0000000e+00
-1.0000000e+00
1.0000000e+00
0.0000000e+00
0.0000000e+00
-1.0000000e+00
-1.0000000e+00
0.0000000e+00
0.0000000e+00
-1.0000000e+00
0.0000000e+00
-1.0000000e+00
-1.0000000e+00
1.0000000e+00
-1.0000000e+00
-1.0000000e+00
-1.0000000e+00
1.0000000e+00
-1.0000000e+00
-1.0000000e+00
-1.0000000e+00
-1.0000000e+00
0.0000000e+00
-1.0000000e+00
-1.0000000e+00
-1.0000000e+00
-1.0000000e+00
1.0000000e+00
-1.0000000e+00
-1.0000000e+00
-1.0000000e+00
-1.0000000e+00
-1.0000000e+00
-1.0000000e+00
-1.0000000e+00
1.0000000e+00
0.0000000e+00
-1.0000000e+00
0.0000000e+00
-1.0000000e+00
1.0000000e+00
-1.0000000e+00
-1.0000000e+00
-1.0000000e+00
-1.0000000e+00
1.0000000e+00
-1.0000000e+00
0.0000000e+00
1.0000000e+00
-1.0000000e+00
-1.0000000e+00
1.0000000e+00
-1.0000000e+00
-1.0000000e+00
0.0000000e+00
-1.0000000e+00
1.0000000e+00
-1.0000000e+00
0.0000000e+00
1.0000000e+00
-1.0000000e+00
-1.0000000e+00
1.0000000e+00
-1.0000000e+00
1.0000000e+00
-1.0000000e+00
-1.0000000e+00
1.0000000e+00
-1.0000000e+00
-1.0000000e+00
1.0000000e+00
-1.0000000e+00
-1.0000000e+00
0.0000000e+00
-1.0000000e+00
1.0000000e+00
1.0000000e+00
0.0000000e+00
-1.0000000e+00
-1.0000000e+00
-1.0000000e+00
-1.0000000e+00
-1.0000000e+00
0.0000000e+00
1.0000000e+00
-1.0000000e+00
0.0000000e+00
1.0000000e+00
-1.0000000e+00
-1.0000000e+00
-1.0000000e+00
1.0000000e+00
-1.0000000e+00
1.0000000e+00
-1.0000000e+00
-1.0000000e+00
-1.0000000e+00
-1.0000000e+00
-1.0000000e+00
-1.0000000e+00
-1.0000000e+00
0.0000000e+00
-1.0000000e+00
0.0000000e+00
-1.0000000e+00
-1.0000000e+00
0.0000000e+00
-1.0000000e+00
-1.0000000e+00
1.0000000e+00
-1.0000000e+00
-1.0000000e+00
0.0000000e+00
-1.0000000e+00
1.0000000e+00
1.0000000e+00
1.0000000e+00
1.0000000e+00
-1.0000000e+00
-1.0000000e+00
-1.0000000e+00
-1.0000000e+00
-1.0000000e+00
-1.0000000e+00
-1.0000000e+00
-1.0000000e+00
1.0000000e+00
-1.0000000e+00
-1.0000000e+00
1.0000000e+00
-1.0000000e+00
1.0000000e+00
1.0000000e+00
-1.0000000e+00
-1.0000000e+00
-1.0000000e+00
-1.0000000e+00
0.0000000e+00
0.0000000e+00
-1.0000000e+00
-1.0000000e+00
-1.0000000e+00
0.0000000e+00
1.0000000e+00
-1.0000000e+00
-1.0000000e+00
-1.0000000e+00
-1.0000000e+00
1.0000000e+00
-1.0000000e+00
-1.0000000e+00
-1.0000000e+00
-1.0000000e+00
-1.0000000e+00
1.0000000e+00
0.0000000e+00
-1.0000000e+00
-1.0000000e+00
-1.0000000e+00
-1.0000000e+00
-1.0000000e+00
-1.0000000e+00
1.0000000e+00
-1.0000000e+00
-1.0000000e+00
-1.0000000e+00
0.0000000e+00
-1.0000000e+00
-1.0000000e+00
-1.0000000e+00
-1.0000000e+00
1.0000000e+00
0.0000000e+00
-1.0000000e+00
-1.0000000e+00
-1.0000000e+00
1.0000000e+00
0.0000000e+00
-1.0000000e+00
-1.0000000e+00
-1.0000000e+00
1.0000000e+00
-1.0000000e+00
1.0000000e+00
-1.0000000e+00
1.0000000e+00
0.0000000e+00
-1.0000000e+00
-1.0000000e+00
-1.0000000e+00
-1.0000000e+00
1.0000000e+00
-1.0000000e+00
0.0000000e+00
-1.0000000e+00
1.0000000e+00
0.0000000e+00
-1.0000000e+00
1.0000000e+00
-1.0000000e+00
1.0000000e+00
1.0000000e+00
-1.0000000e+00
-1.0000000e+00
-1.0000000e+00
1.0000000e+00
-1.0000000e+00
-1.0000000e+00
-1.0000000e+00
-1.0000000e+00
-1.0000000e+00
0.0000000e+00
-1.0000000e+00
-1.0000000e+00
-1.0000000e+00
1.0000000e+00
1.0000000e+00
1.0000000e+00
1.0000000e+00
1.0000000e+00
-1.0000000e+00
-1.0000000e+00
-1.0000000e+00
1.0000000e+00
-1.0000000e+00
0.0000000e+00
1.0000000e+00
-1.0000000e+00
-1.0000000e+00
1.0000000e+00
1.0000000e+00
1.0000000e+00
-1.0000000e+00
-1.0000000e+00
1.0000000e+00
1.0000000e+00
-1.0000000e+00
0.0000000e+00
-1.0000000e+00
-1.0000000e+00
1.0000000e+00
-1.0000000e+00
-1.0000000e+00
0.0000000e+00
0.0000000e+00
1.0000000e+00
-1.0000000e+00
-1.0000000e+00
-1.0000000e+00
1.0000000e+00
-1.0000000e+00
1.0000000e+00
-1.0000000e+00
-1.0000000e+00
1.0000000e+00
-1.0000000e+00
-1.0000000e+00
-1.0000000e+00
1.0000000e+00
-1.0000000e+00
-1.0000000e+00
-1.0000000e+00
1.0000000e+00
-1.0000000e+00
1.0000000e+00
-1.0000000e+00
-1.0000000e+00
-1.0000000e+00
-1.0000000e+00
-1.0000000e+00
-1.0000000e+00
-1.0000000e+00
-1.0000000e+00
-1.0000000e+00
1.0000000e+00
-1.0000000e+00
-1.0000000e+00
-1.0000000e+00
-1.0000000e+00
-1.0000000e+00
1.0000000e+00
-1.0000000e+00
-1.0000000e+00
-1.0000000e+00
-1.0000000e+00
-1.0000000e+00
-1.0000000e+00
1.0000000e+00
-1.0000000e+00
1.0000000e+00
-1.0000000e+00
-1.0000000e+00
-1.0000000e+00
-1.0000000e+00
-1.0000000e+00
-1.0000000e+00
-1.0000000e+00
1.0000000e+00
-1.0000000e+00
-1.0000000e+00
-1.0000000e+00
-1.0000000e+00
-1.0000000e+00
-1.0000000e+00
-1.0000000e+00
1.0000000e+00
-1.0000000e+00
-1.0000000e+00
-1.0000000e+00
-1.0000000e+00
-1.0000000e+00
-1.0000000e+00
1.0000000e+00
1.0000000e+00
-1.0000000e+00
-1.0000000e+00
-1.0000000e+00
-1.0000000e+00
-1.0000000e+00
-1.0000000e+00
-1.0000000e+00
-1.0000000e+00
-1.0000000e+00
1.0000000e+00
-1.0000000e+00
-1.0000000e+00
-1.0000000e+00
-1.0000000e+00
-1.0000000e+00
-1.0000000e+00
-1.0000000e+00
-1.0000000e+00
1.0000000e+00
-1.0000000e+00
1.0000000e+00
1.0000000e+00
-1.0000000e+00
1.0000000e+00
-1.0000000e+00
-1.0000000e+00
1.0000000e+00
-1.0000000e+00
1.0000000e+00
-1.0000000e+00
1.0000000e+00
-1.0000000e+00
-1.0000000e+00
-1.0000000e+00
-1.0000000e+00
-1.0000000e+00
-1.0000000e+00
1.0000000e+00
-1.0000000e+00
-1.0000000e+00
-1.0000000e+00
-1.0000000e+00
-1.0000000e+00
1.0000000e+00
-1.0000000e+00
-1.0000000e+00
-1.0000000e+00
-1.0000000e+00
1.0000000e+00
-1.0000000e+00
-1.0000000e+00
-1.0000000e+00
-1.0000000e+00
1.0000000e+00
-1.0000000e+00
1.0000000e+00
-1.0000000e+00
-1.0000000e+00
-1.0000000e+00
-1.0000000e+00
-1.0000000e+00
-1.0000000e+00
-1.0000000e+00
-1.0000000e+00
1.0000000e+00
1.0000000e+00
-1.0000000e+00
-1.0000000e+00
-1.0000000e+00
-1.0000000e+00
1.0000000e+00
-1.0000000e+00
-1.0000000e+00
1.0000000e+00
-1.0000000e+00
-1.0000000e+00
-1.0000000e+00
-1.0000000e+00
-1.0000000e+00
-1.0000000e+00
-1.0000000e+00
-1.0000000e+00
-1.0000000e+00
1.0000000e+00
-1.0000000e+00
-1.0000000e+00
-1.0000000e+00
-1.0000000e+00
-1.0000000e+00
-1.0000000e+00
-1.0000000e+00
-1.0000000e+00
-1.0000000e+00
-1.0000000e+00
1.0000000e+00
-1.0000000e+00
1.0000000e+00
-1.0000000e+00
1.0000000e+00
-1.0000000e+00
-1.0000000e+00
1.0000000e+00
-1.0000000e+00
-1.0000000e+00
-1.0000000e+00
-1.0000000e+00
-1.0000000e+00
-1.0000000e+00
-1.0000000e+00
1.0000000e+00
-1.0000000e+00
1.0000000e+00
-1.0000000e+00
-1.0000000e+00
-1.0000000e+00
-1.0000000e+00
-1.0000000e+00
-1.0000000e+00
1.0000000e+00
-1.0000000e+00
-1.0000000e+00
-1.0000000e+00
-1.0000000e+00
-1.0000000e+00
-1.0000000e+00
-1.0000000e+00
-1.0000000e+00
-1.0000000e+00
1.0000000e+00
-1.0000000e+00
-1.0000000e+00
-1.0000000e+00
-1.0000000e+00
-1.0000000e+00
-1.0000000e+00
-1.0000000e+00
1.0000000e+00
-1.0000000e+00
-1.0000000e+00
-1.0000000e+00
-1.0000000e+00
1.0000000e+00
-1.0000000e+00
-1.0000000e+00
-1.0000000e+00
-1.0000000e+00
1.0000000e+00
-1.0000000e+00
-1.0000000e+00
-1.0000000e+00
-1.0000000e+00
-1.0000000e+00
-1.0000000e+00
-1.0000000e+00
1.0000000e+00
-1.0000000e+00
1.0000000e+00
-1.0000000e+00
-1.0000000e+00
1.0000000e+00
-1.0000000e+00
-1.0000000e+00
-1.0000000e+00
-1.0000000e+00
-1.0000000e+00
1.0000000e+00
-1.0000000e+00
-1.0000000e+00
-1.0000000e+00
-1.0000000e+00
-1.0000000e+00
-1.0000000e+00
-1.0000000e+00
1.0000000e+00
1.0000000e+00
-1.0000000e+00
1.0000000e+00
-1.0000000e+00
-1.0000000e+00
-1.0000000e+00
-1.0000000e+00
-1.0000000e+00
-1.0000000e+00
-1.0000000e+00
-1.0000000e+00
1.0000000e+00
-1.0000000e+00
-1.0000000e+00
-1.0000000e+00
-1.0000000e+00
-1.0000000e+00
-1.0000000e+00
-1.0000000e+00
1.0000000e+00
-1.0000000e+00
-1.0000000e+00
-1.0000000e+00
-1.0000000e+00
-1.0000000e+00
-1.0000000e+00
-1.0000000e+00
-1.0000000e+00
-1.0000000e+00
1.0000000e+00
1.0000000e+00
-1.0000000e+00
-1.0000000e+00
1.0000000e+00
-1.0000000e+00
-1.0000000e+00
-1.0000000e+00
-1.0000000e+00
-1.0000000e+00
1.0000000e+00
-1.0000000e+00
-1.0000000e+00
-1.0000000e+00
-1.0000000e+00
1.0000000e+00
-1.0000000e+00
-1.0000000e+00
-1.0000000e+00
1.0000000e+00
-1.0000000e+00
-1.0000000e+00
-1.0000000e+00
-1.0000000e+00
-1.0000000e+00
-1.0000000e+00
-1.0000000e+00
-1.0000000e+00
-1.0000000e+00
1.0000000e+00
-1.0000000e+00
-1.0000000e+00
-1.0000000e+00
-1.0000000e+00
-1.0000000e+00
1.0000000e+00
-1.0000000e+00
-1.0000000e+00
-1.0000000e+00
-1.0000000e+00
-1.0000000e+00
-1.0000000e+00
-1.0000000e+00
-1.0000000e+00
-1.0000000e+00
-1.0000000e+00
-1.0000000e+00
1.0000000e+00
1.0000000e+00
-1.0000000e+00
-1.0000000e+00
1.0000000e+00
-1.0000000e+00
-1.0000000e+00
-1.0000000e+00
1.0000000e+00
-1.0000000e+00
-1.0000000e+00
-1.0000000e+00
1.0000000e+00
-1.0000000e+00
-1.0000000e+00
-1.0000000e+00
-1.0000000e+00
-1.0000000e+00
1.0000000e+00
-1.0000000e+00
-1.0000000e+00
-1.0000000e+00
-1.0000000e+00
-1.0000000e+00
-1.0000000e+00
-1.0000000e+00
-1.0000000e+00
-1.0000000e+00
-1.0000000e+00
-1.0000000e+00
-1.0000000e+00
-1.0000000e+00
-1.0000000e+00
1.0000000e+00
-1.0000000e+00
-1.0000000e+00
1.0000000e+00
-1.0000000e+00
-1.0000000e+00
-1.0000000e+00
-1.0000000e+00
1.0000000e+00
-1.0000000e+00
-1.0000000e+00
-1.0000000e+00
-1.0000000e+00
-1.0000000e+00
-1.0000000e+00
-1.0000000e+00
-1.0000000e+00
-1.0000000e+00
-1.0000000e+00
1.0000000e+00
1.0000000e+00
-1.0000000e+00
-1.0000000e+00
-1.0000000e+00
1.0000000e+00
1.0000000e+00
-1.0000000e+00
-1.0000000e+00
1.0000000e+00
-1.0000000e+00
-1.0000000e+00
1.0000000e+00
1.0000000e+00
-1.0000000e+00
1.0000000e+00
-1.0000000e+00
1.0000000e+00
-1.0000000e+00
1.0000000e+00
-1.0000000e+00
-1.0000000e+00
-1.0000000e+00
-1.0000000e+00
-1.0000000e+00
-1.0000000e+00
-1.0000000e+00
1.0000000e+00
-1.0000000e+00
-1.0000000e+00
-1.0000000e+00
-1.0000000e+00
-1.0000000e+00
-1.0000000e+00
-1.0000000e+00
-1.0000000e+00
-1.0000000e+00
-1.0000000e+00
1.0000000e+00
-1.0000000e+00
-1.0000000e+00
-1.0000000e+00
-1.0000000e+00
-1.0000000e+00
-1.0000000e+00
-1.0000000e+00
-1.0000000e+00
1.0000000e+00
1.0000000e+00
1.0000000e+00
-1.0000000e+00
-1.0000000e+00
-1.0000000e+00
-1.0000000e+00
-1.0000000e+00
1.0000000e+00
-1.0000000e+00
-1.0000000e+00
1.0000000e+00
-1.0000000e+00
-1.0000000e+00
-1.0000000e+00
1.0000000e+00
-1.0000000e+00
1.0000000e+00
-1.0000000e+00
-1.0000000e+00
1.0000000e+00
1.0000000e+00
-1.0000000e+00
-1.0000000e+00
1.0000000e+00
-1.0000000e+00
-1.0000000e+00
-1.0000000e+00
1.0000000e+00
-1.0000000e+00
1.0000000e+00
-1.0000000e+00
-1.0000000e+00
-1.0000000e+00
-1.0000000e+00
-1.0000000e+00
1.0000000e+00
1.0000000e+00
-1.0000000e+00
-1.0000000e+00
-1.0000000e+00
1.0000000e+00
-1.0000000e+00
-1.0000000e+00
-1.0000000e+00
-1.0000000e+00
-1.0000000e+00
-1.0000000e+00
-1.0000000e+00
-1.0000000e+00
1.0000000e+00
-1.0000000e+00
-1.0000000e+00
1.0000000e+00
-1.0000000e+00
-1.0000000e+00
-1.0000000e+00
-1.0000000e+00
-1.0000000e+00
1.0000000e+00
1.0000000e+00
-1.0000000e+00
-1.0000000e+00
-1.0000000e+00
-1.0000000e+00
1.0000000e+00
-1.0000000e+00
-1.0000000e+00
-1.0000000e+00
-1.0000000e+00
1.0000000e+00
1.0000000e+00
-1.0000000e+00
-1.0000000e+00
-1.0000000e+00
1.0000000e+00
-1.0000000e+00
-1.0000000e+00
-1.0000000e+00
-1.0000000e+00
1.0000000e+00
-1.0000000e+00
-1.0000000e+00
-1.0000000e+00
-1.0000000e+00
-1.0000000e+00
-1.0000000e+00
-1.0000000e+00
1.0000000e+00
1.0000000e+00
-1.0000000e+00
1.0000000e+00
1.0000000e+00
-1.0000000e+00
-1.0000000e+00
-1.0000000e+00
1.0000000e+00
-1.0000000e+00
-1.0000000e+00
-1.0000000e+00
-1.0000000e+00
-1.0000000e+00
-1.0000000e+00
-1.0000000e+00
1.0000000e+00
-1.0000000e+00
-1.0000000e+00
-1.0000000e+00
-1.0000000e+00
-1.0000000e+00
-1.0000000e+00
1.0000000e+00
-1.0000000e+00
-1.0000000e+00
-1.0000000e+00
-1.0000000e+00
-1.0000000e+00
1.0000000e+00
-1.0000000e+00
1.0000000e+00
-1.0000000e+00
1.0000000e+00
1.0000000e+00
-1.0000000e+00
-1.0000000e+00
-1.0000000e+00
-1.0000000e+00
1.0000000e+00
-1.0000000e+00
-1.0000000e+00
-1.0000000e+00
-1.0000000e+00
-1.0000000e+00
-1.0000000e+00
-1.0000000e+00
1.0000000e+00
1.0000000e+00
-1.0000000e+00
-1.0000000e+00
-1.0000000e+00
1.0000000e+00
-1.0000000e+00
-1.0000000e+00
-1.0000000e+00
-1.0000000e+00
-1.0000000e+00
-1.0000000e+00
1.0000000e+00
1.0000000e+00
-1.0000000e+00
1.0000000e+00
-1.0000000e+00
-1.0000000e+00
1.0000000e+00
1.0000000e+00
-1.0000000e+00
-1.0000000e+00
-1.0000000e+00
-1.0000000e+00
-1.0000000e+00
-1.0000000e+00
-1.0000000e+00
-1.0000000e+00
-1.0000000e+00
-1.0000000e+00
-1.0000000e+00
1.0000000e+00
1.0000000e+00
-1.0000000e+00
-1.0000000e+00
-1.0000000e+00
1.0000000e+00
-1.0000000e+00
-1.0000000e+00
1.0000000e+00
-1.0000000e+00
-1.0000000e+00
-1.0000000e+00
-1.0000000e+00
-1.0000000e+00
-1.0000000e+00
1.0000000e+00
-1.0000000e+00
-1.0000000e+00
-1.0000000e+00
1.0000000e+00
-1.0000000e+00
1.0000000e+00
1.0000000e+00
-1.0000000e+00
-1.0000000e+00
-1.0000000e+00
-1.0000000e+00
-1.0000000e+00
-1.0000000e+00
-1.0000000e+00
1.0000000e+00
1.0000000e+00
-1.0000000e+00
1.0000000e+00
-1.0000000e+00
-1.0000000e+00
1.0000000e+00
-1.0000000e+00
-1.0000000e+00
1.0000000e+00
-1.0000000e+00
-1.0000000e+00
-1.0000000e+00
1.0000000e+00
-1.0000000e+00
-1.0000000e+00
-1.0000000e+00
1.0000000e+00
-1.0000000e+00
-1.0000000e+00
-1.0000000e+00
-1.0000000e+00
1.0000000e+00
-1.0000000e+00
-1.0000000e+00
-1.0000000e+00
-1.0000000e+00
-1.0000000e+00
-1.0000000e+00
-1.0000000e+00
1.0000000e+00
-1.0000000e+00
-1.0000000e+00
-1.0000000e+00
-1.0000000e+00
-1.0000000e+00
-1.0000000e+00
1.0000000e+00
-1.0000000e+00
-1.0000000e+00
-1.0000000e+00
1.0000000e+00
-1.0000000e+00
-1.0000000e+00
1.0000000e+00
-1.0000000e+00
-1.0000000e+00
1.0000000e+00
-1.0000000e+00
1.0000000e+00
-1.0000000e+00
-1.0000000e+00
-1.0000000e+00
-1.0000000e+00
-1.0000000e+00
-1.0000000e+00
-1.0000000e+00
1.0000000e+00
-1.0000000e+00
-1.0000000e+00
-1.0000000e+00
-1.0000000e+00
-1.0000000e+00
1.0000000e+00
-1.0000000e+00
-1.0000000e+00
-1.0000000e+00
-1.0000000e+00
-1.0000000e+00
1.0000000e+00
-1.0000000e+00
1.0000000e+00
-1.0000000e+00
-1.0000000e+00
1.0000000e+00
-1.0000000e+00
1.0000000e+00
-1.0000000e+00
-1.0000000e+00
-1.0000000e+00
-1.0000000e+00
-1.0000000e+00
-1.0000000e+00
1.0000000e+00
-1.0000000e+00
1.0000000e+00
-1.0000000e+00
-1.0000000e+00
1.0000000e+00
-1.0000000e+00
-1.0000000e+00
-1.0000000e+00
-1.0000000e+00
-1.0000000e+00
1.0000000e+00
-1.0000000e+00
-1.0000000e+00
1.0000000e+00
-1.0000000e+00
-1.0000000e+00
-1.0000000e+00
-1.0000000e+00
1.0000000e+00
-1.0000000e+00
-1.0000000e+00
-1.0000000e+00
-1.0000000e+00
-1.0000000e+00
1.0000000e+00
-1.0000000e+00
-1.0000000e+00
1.0000000e+00
1.0000000e+00
1.0000000e+00
-1.0000000e+00
-1.0000000e+00
-1.0000000e+00
-1.0000000e+00
-1.0000000e+00
-1.0000000e+00
-1.0000000e+00
1.0000000e+00
-1.0000000e+00
-1.0000000e+00
-1.0000000e+00
-1.0000000e+00
-1.0000000e+00
1.0000000e+00
-1.0000000e+00
1.0000000e+00
-1.0000000e+00
1.0000000e+00
1.0000000e+00
-1.0000000e+00
-1.0000000e+00
-1.0000000e+00
-1.0000000e+00
-1.0000000e+00
-1.0000000e+00
-1.0000000e+00
-1.0000000e+00
-1.0000000e+00
-1.0000000e+00
-1.0000000e+00
1.0000000e+00
1.0000000e+00
1.0000000e+00
-1.0000000e+00
-1.0000000e+00
1.0000000e+00
-1.0000000e+00
-1.0000000e+00
-1.0000000e+00
1.0000000e+00
-1.0000000e+00
1.0000000e+00
-1.0000000e+00
-1.0000000e+00
-1.0000000e+00
-1.0000000e+00
-1.0000000e+00
-1.0000000e+00
-1.0000000e+00
-1.0000000e+00
1.0000000e+00
-1.0000000e+00
-1.0000000e+00
-1.0000000e+00
1.0000000e+00
-1.0000000e+00
-1.0000000e+00
1.0000000e+00
-1.0000000e+00
-1.0000000e+00
-1.0000000e+00
-1.0000000e+00
1.0000000e+00
-1.0000000e+00
1.0000000e+00
-1.0000000e+00
-1.0000000e+00
-1.0000000e+00
-1.0000000e+00
-1.0000000e+00
1.0000000e+00
-1.0000000e+00
-1.0000000e+00
1.0000000e+00
-1.0000000e+00
-1.0000000e+00
-1.0000000e+00
-1.0000000e+00
-1.0000000e+00
-1.0000000e+00
1.0000000e+00
1.0000000e+00
1.0000000e+00
-1.0000000e+00
-1.0000000e+00
-1.0000000e+00
-1.0000000e+00
-1.0000000e+00
-1.0000000e+00
1.0000000e+00
1.0000000e+00
-1.0000000e+00
-1.0000000e+00
-1.0000000e+00
1.0000000e+00
1.0000000e+00
-1.0000000e+00
-1.0000000e+00
-1.0000000e+00
1.0000000e+00
1.0000000e+00
-1.0000000e+00
-1.0000000e+00
-1.0000000e+00
-1.0000000e+00
-1.0000000e+00
-1.0000000e+00
-1.0000000e+00
-1.0000000e+00
-1.0000000e+00
-1.0000000e+00
-1.0000000e+00
-1.0000000e+00
-1.0000000e+00
1.0000000e+00
-1.0000000e+00
-1.0000000e+00
-1.0000000e+00
1.0000000e+00
-1.0000000e+00
-1.0000000e+00
-1.0000000e+00
1.0000000e+00
1.0000000e+00
1.0000000e+00
-1.0000000e+00
-1.0000000e+00
-1.0000000e+00
-1.0000000e+00
-1.0000000e+00
-1.0000000e+00
1.0000000e+00
-1.0000000e+00
1.0000000e+00
-1.0000000e+00
-1.0000000e+00
-1.0000000e+00
-1.0000000e+00
-1.0000000e+00
-1.0000000e+00
-1.0000000e+00
-1.0000000e+00
-1.0000000e+00
1.0000000e+00
1.0000000e+00
-1.0000000e+00
-1.0000000e+00
-1.0000000e+00
-1.0000000e+00
-1.0000000e+00
-1.0000000e+00
1.0000000e+00
-1.0000000e+00
-1.0000000e+00
1.0000000e+00
-1.0000000e+00
1.0000000e+00
1.0000000e+00
1.0000000e+00
-1.0000000e+00
-1.0000000e+00
-1.0000000e+00
-1.0000000e+00
1.0000000e+00
-1.0000000e+00
1.0000000e+00
-1.0000000e+00
-1.0000000e+00
-1.0000000e+00
-1.0000000e+00
-1.0000000e+00
-1.0000000e+00
-1.0000000e+00
-1.0000000e+00
-1.0000000e+00
-1.0000000e+00
-1.0000000e+00
-1.0000000e+00
-1.0000000e+00
1.0000000e+00
-1.0000000e+00
-1.0000000e+00
-1.0000000e+00
-1.0000000e+00
-1.0000000e+00
-1.0000000e+00
1.0000000e+00
-1.0000000e+00
1.0000000e+00
-1.0000000e+00
1.0000000e+00
1.0000000e+00
-1.0000000e+00
-1.0000000e+00
-1.0000000e+00
-1.0000000e+00
-1.0000000e+00
-1.0000000e+00
-1.0000000e+00
1.0000000e+00
-1.0000000e+00
-1.0000000e+00
1.0000000e+00
-1.0000000e+00
-1.0000000e+00
-1.0000000e+00
-1.0000000e+00
-1.0000000e+00
-1.0000000e+00
-1.0000000e+00
1.0000000e+00
-1.0000000e+00
-1.0000000e+00
1.0000000e+00
-1.0000000e+00
-1.0000000e+00
1.0000000e+00
1.0000000e+00
-1.0000000e+00
-1.0000000e+00
1.0000000e+00
1.0000000e+00
-1.0000000e+00
-1.0000000e+00
-1.0000000e+00
-1.0000000e+00
-1.0000000e+00
1.0000000e+00
-1.0000000e+00
-1.0000000e+00
-1.0000000e+00
-1.0000000e+00
-1.0000000e+00
1.0000000e+00
-1.0000000e+00
1.0000000e+00
-1.0000000e+00
-1.0000000e+00
-1.0000000e+00
-1.0000000e+00
-1.0000000e+00
-1.0000000e+00
1.0000000e+00
-1.0000000e+00
-1.0000000e+00
-1.0000000e+00
-1.0000000e+00
-1.0000000e+00
-1.0000000e+00
-1.0000000e+00
1.0000000e+00
-1.0000000e+00
-1.0000000e+00
1.0000000e+00
-1.0000000e+00
1.0000000e+00
-1.0000000e+00
1.0000000e+00
-1.0000000e+00
-1.0000000e+00
-1.0000000e+00
-1.0000000e+00
-1.0000000e+00
-1.0000000e+00
-1.0000000e+00
-1.0000000e+00
-1.0000000e+00
1.0000000e+00
-1.0000000e+00
-1.0000000e+00
-1.0000000e+00
-1.0000000e+00
-1.0000000e+00
-1.0000000e+00
-1.0000000e+00
-1.0000000e+00
1.0000000e+00
-1.0000000e+00
-1.0000000e+00
-1.0000000e+00
-1.0000000e+00
-1.0000000e+00
1.0000000e+00
-1.0000000e+00
-1.0000000e+00
1.0000000e+00
-1.0000000e+00
1.0000000e+00
-1.0000000e+00
-1.0000000e+00
1.0000000e+00
1.0000000e+00
-1.0000000e+00
-1.0000000e+00
-1.0000000e+00
-1.0000000e+00
1.0000000e+00
1.0000000e+00
-1.0000000e+00
1.0000000e+00
-1.0000000e+00
-1.0000000e+00
-1.0000000e+00
1.0000000e+00
-1.0000000e+00
-1.0000000e+00
-1.0000000e+00
-1.0000000e+00
-1.0000000e+00
-1.0000000e+00
1.0000000e+00
-1.0000000e+00
-1.0000000e+00
1.0000000e+00
-1.0000000e+00
-1.0000000e+00
-1.0000000e+00
1.0000000e+00
-1.0000000e+00
-1.0000000e+00
-1.0000000e+00
-1.0000000e+00
-1.0000000e+00
1.0000000e+00
1.0000000e+00
-1.0000000e+00
1.0000000e+00
-1.0000000e+00
-1.0000000e+00
-1.0000000e+00
1.0000000e+00
-1.0000000e+00
-1.0000000e+00
-1.0000000e+00
-1.0000000e+00
-1.0000000e+00
-1.0000000e+00
1.0000000e+00
1.0000000e+00
-1.0000000e+00
-1.0000000e+00
1.0000000e+00
1.0000000e+00
-1.0000000e+00
-1.0000000e+00
-1.0000000e+00
1.0000000e+00
-1.0000000e+00
1.0000000e+00
-1.0000000e+00
1.0000000e+00
-1.0000000e+00
-1.0000000e+00
-1.0000000e+00
-1.0000000e+00
1.0000000e+00
-1.0000000e+00
-1.0000000e+00
1.0000000e+00
-1.0000000e+00
1.0000000e+00
1.0000000e+00
1.0000000e+00
-1.0000000e+00
-1.0000000e+00
-1.0000000e+00
-1.0000000e+00
1.0000000e+00
1.0000000e+00
1.0000000e+00
1.0000000e+00
-1.0000000e+00
-1.0000000e+00
-1.0000000e+00
1.0000000e+00
-1.0000000e+00
1.0000000e+00
1.0000000e+00
-1.0000000e+00
-1.0000000e+00
-1.0000000e+00
1.0000000e+00
-1.0000000e+00
1.0000000e+00
1.0000000e+00
-1.0000000e+00
1.0000000e+00
-1.0000000e+00
1.0000000e+00
1.0000000e+00
-1.0000000e+00
-1.0000000e+00
1.0000000e+00
1.0000000e+00
1.0000000e+00
1.0000000e+00
-1.0000000e+00
1.0000000e+00
1.0000000e+00
1.0000000e+00
1.0000000e+00
1.0000000e+00
1.0000000e+00
1.0000000e+00
-1.0000000e+00
1.0000000e+00
-1.0000000e+00
1.0000000e+00
1.0000000e+00
1.0000000e+00
-1.0000000e+00
1.0000000e+00
1.0000000e+00
1.0000000e+00
1.0000000e+00
1.0000000e+00
1.0000000e+00
-1.0000000e+00
1.0000000e+00
1.0000000e+00
1.0000000e+00
1.0000000e+00
SLAVE 1 2292  float
1.0000000e+00
-1.0000000e+00
1.0000000e+00
1.0000000e+00
-1.0000000e+00
-1.0000000e+00
-1.0000000e+00
1.0000000e+00
1.0000000e+00
-1.0000000e+00
1.0000000e+00
1.0000000e+00
-1.0000000e+00
-1.0000000e+00
-1.0000000e+00
1.0000000e+00
-1.0000000e+00
-1.0000000e+00
-1.0000000e+00
-1.0000000e+00
1.0000000e+00
-1.0000000e+00
-1.0000000e+00
1.0000000e+00
-1.0000000e+00
1.0000000e+00
1.0000000e+00
-1.0000000e+00
-1.0000000e+00
-1.0000000e+00
-1.0000000e+00
-1.0000000e+00
-1.0000000e+00
-1.0000000e+00
1.0000000e+00
-1.0000000e+00
1.0000000e+00
-1.0000000e+00
-1.0000000e+00
-1.0000000e+00
-1.0000000e+00
1.0000000e+00
-1.0000000e+00
-1.0000000e+00
-1.0000000e+00
-1.0000000e+00
-1.0000000e+00
-1.0000000e+00
-1.0000000e+00
-1.0000000e+00
-1.0000000e+00
1.0000000e+00
-1.0000000e+00
1.0000000e+00
-1.0000000e+00
1.0000000e+00
1.0000000e+00
-1.0000000e+00
-1.0000000e+00
-1.0000000e+00
1.0000000e+00
-1.0000000e+00
-1.0000000e+00
-1.0000000e+00
-1.0000000e+00
-1.0000000e+00
-1.0000000e+00
1.0000000e+00
1.0000000e+00
-1.0000000e+00
-1.0000000e+00
-1.0000000e+00
-1.0000000e+00
-1.0000000e+00
-1.0000000e+00
-1.0000000e+00
-1.0000000e+00
1.0000000e+00
-1.0000000e+00
-1.0000000e+00
-1.0000000e+00
-1.0000000e+00
1.0000000e+00
-1.0000000e+00
1.0000000e+00
1.0000000e+00
-1.0000000e+00
-1.0000000e+00
-1.0000000e+00
-1.0000000e+00
-1.0000000e+00
-1.0000000e+00
-1.0000000e+00
1.0000000e+00
-1.0000000e+00
-1.0000000e+00
1.0000000e+00
-1.0000000e+00
-1.0000000e+00
-1.0000000e+00
-1.0000000e+00
-1.0000000e+00
-1.0000000e+00
1.0000000e+00
1.0000000e+00
-1.0000000e+00
1.0000000e+00
1.0000000e+00
-1.0000000e+00
-1.0000000e+00
-1.0000000e+00
-1.0000000e+00
-1.0000000e+00
-1.0000000e+00
-1.0000000e+00
-1.0000000e+00
-1.0000000e+00
1.0000000e+00
-1.0000000e+00
1.0000000e+00
-1.0000000e+00
-1.0000000e+00
-1.0000000e+00
-1.0000000e+00
-1.0000000e+00
1.0000000e+00
-1.0000000e+00
-1.0000000e+00
-1.0000000e+00
-1.0000000e+00
-1.0000000e+00
1.0000000e+00
1.0000000e+00
-1.0000000e+00
-1.0000000e+00
-1.0000000e+00
-1.0000000e+00
1.0000000e+00
-1.0000000e+00
-1.0000000e+00
-1.0000000e+00
1.0000000e+00
1.0000000e+00
1.0000000e+00
-1.0000000e+00
-1.0000000e+00
-1.0000000e+00
-1.0000000e+00
1.0000000e+00
1.0000000e+00
-1.0000000e+00
-1.0000000e+00
-1.0000000e+00
-1.0000000e+00
-1.0000000e+00
-1.0000000e+00
-1.0000000e+00
1.0000000e+00
1.0000000e+00
1.0000000e+00
-1.0000000e+00
-1.0000000e+00
-1.0000000e+00
-1.0000000e+00
1.0000000e+00
-1.0000000e+00
1.0000000e+00
-1.0000000e+00
-1.0000000e+00
1.0000000e+00
-1.0000000e+00
1.0000000e+00
-1.0000000e+00
-1.0000000e+00
-1.0000000e+00
-1.0000000e+00
-1.0000000e+00
1.0000000e+00
-1.0000000e+00
-1.0000000e+00
1.0000000e+00
-1.0000000e+00
-1.0000000e+00
-1.0000000e+00
-1.0000000e+00
1.0000000e+00
-1.0000000e+00
1.0000000e+00
-1.0000000e+00
-1.0000000e+00
-1.0000000e+00
1.0000000e+00
1.0000000e+00
-1.0000000e+00
-1.0000000e+00
-1.0000000e+00
-1.0000000e+00
-1.0000000e+00
-1.0000000e+00
-1.0000000e+00
-1.0000000e+00
-1.0000000e+00
1.0000000e+00
-1.0000000e+00
-1.0000000e+00
-1.0000000e+00
-1.0000000e+00
1.0000000e+00
1.0000000e+00
-1.0000000e+00
-1.0000000e+00
1.0000000e+00
1.0000000e+00
-1.0000000e+00
-1.0000000e+00
-1.0000000e+00
-1.0000000e+00
-1.0000000e+00
-1.0000000e+00
1.0000000e+00
-1.0000000e+00
-1.0000000e+00
-1.0000000e+00
-1.0000000e+00
-1.0000000e+00
-1.0000000e+00
1.0000000e+00
-1.0000000e+00
1.0000000e+00
-1.0000000e+00
-1.0000000e+00
1.0000000e+00
-1.0000000e+00
-1.0000000e+00
-1.0000000e+00
-1.0000000e+00
1.0000000e+00
-1.0000000e+00
-1.0000000e+00
-1.0000000e+00
-1.0000000e+00
-1.0000000e+00
-1.0000000e+00
1.0000000e+00
-1.0000000e+00
1.0000000e+00
1.0000000e+00
-1.0000000e+00
1.0000000e+00
-1.0000000e+00
-1.0000000e+00
-1.0000000e+00
-1.0000000e+00
-1.0000000e+00
1.0000000e+00
-1.0000000e+00
-1.0000000e+00
-1.0000000e+00
-1.0000000e+00
-1.0000000e+00
-1.0000000e+00
1.0000000e+00
-1.0000000e+00
-1.0000000e+00
-1.0000000e+00
-1.0000000e+00
-1.0000000e+00
1.0000000e+00
1.0000000e+00
1.0000000e+00
-1.0000000e+00
-1.0000000e+00
-1.0000000e+00
1.0000000e+00
-1.0000000e+00
-1.0000000e+00
-1.0000000e+00
-1.0000000e+00
-1.0000000e+00
-1.0000000e+00
-1.0000000e+00
1.0000000e+00
-1.0000000e+00
-1.0000000e+00
-1.0000000e+00
-1.0000000e+00
1.0000000e+00
-1.0000000e+00
-1.0000000e+00
-1.0000000e+00
-1.0000000e+00
1.0000000e+00
-1.0000000e+00
1.0000000e+00
1.0000000e+00
-1.0000000e+00
1.0000000e+00
-1.0000000e+00
-1.0000000e+00
-1.0000000e+00
-1.0000000e+00
-1.0000000e+00
-1.0000000e+00
-1.0000000e+00
-1.0000000e+00
1.0000000e+00
-1.0000000e+00
-1.0000000e+00
1.0000000e+00
-1.0000000e+00
-1.0000000e+00
-1.0000000e+00
-1.0000000e+00
-1.0000000e+00
-1.0000000e+00
-1.0000000e+00
1.0000000e+00
1.0000000e+00
-1.0000000e+00
1.0000000e+00
1.0000000e+00
-1.0000000e+00
-1.0000000e+00
1.0000000e+00
-1.0000000e+00
-1.0000000e+00
-1.0000000e+00
-1.0000000e+00
-1.0000000e+00
-1.0000000e+00
-1.0000000e+00
-1.0000000e+00
1.0000000e+00
-1.0000000e+00
1.0000000e+00
-1.0000000e+00
-1.0000000e+00
-1.0000000e+00
-1.0000000e+00
1.0000000e+00
-1.0000000e+00
-1.0000000e+00
1.0000000e+00
1.0000000e+00
-1.0000000e+00
-1.0000000e+00
-1.0000000e+00
1.0000000e+00
-1.0000000e+00
-1.0000000e+00
-1.0000000e+00
-1.0000000e+00
-1.0000000e+00
-1.0000000e+00
-1.0000000e+00
-1.0000000e+00
1.0000000e+00
1.0000000e+00
-1.0000000e+00
-1.0000000e+00
-1.0000000e+00
-1.0000000e+00
-1.0000000e+00
1.0000000e+00
-1.0000000e+00
-1.0000000e+00
-1.0000000e+00
-1.0000000e+00
1.0000000e+00
-1.0000000e+00
1.0000000e+00
1.0000000e+00
-1.0000000e+00
-1.0000000e+00
-1.0000000e+00
-1.0000000e+00
-1.0000000e+00
-1.0000000e+00
1.0000000e+00
-1.0000000e+00
-1.0000000e+00
-1.0000000e+00
-1.0000000e+00
-1.0000000e+00
1.0000000e+00
-1.0000000e+00
-1.0000000e+00
1.0000000e+00
1.0000000e+00
-1.0000000e+00
1.0000000e+00
-1.0000000e+00
1.0000000e+00
-1.0000000e+00
-1.0000000e+00
-1.0000000e+00
-1.0000000e+00
-1.0000000e+00
-1.0000000e+00
-1.0000000e+00
-1.0000000e+00
-1.0000000e+00
1.0000000e+00
-1.0000000e+00
-1.0000000e+00
-1.0000000e+00
-1.0000000e+00
-1.0000000e+00
-1.0000000e+00
-1.0000000e+00
1.0000000e+00
1.0000000e+00
1.0000000e+00
-1.0000000e+00
-1.0000000e+00
1.0000000e+00
-1.0000000e+00
-1.0000000e+00
1.0000000e+00
-1.0000000e+00
-1.0000000e+00
-1.0000000e+00
-1.0000000e+00
-1.0000000e+00
-1.0000000e+00
1.0000000e+00
-1.0000000e+00
-1.0000000e+00
1.0000000e+00
-1.0000000e+00
-1.0000000e+00
-1.0000000e+00
1.0000000e+00
-1.0000000e+00
-1.0000000e+00
1.0000000e+00
-1.0000000e+00
-1.0000000e+00
1.0000000e+00
-1.0000000e+00
-1.0000000e+00
-1.0000000e+00
-1.0000000e+00
-1.0000000e+00
-1.0000000e+00
1.0000000e+00
-1.0000000e+00
1.0000000e+00
-1.0000000e+00
-1.0000000e+00
-1.0000000e+00
-1.0000000e+00
-1.0000000e+00
-1.0000000e+00
1.0000000e+00
-1.0000000e+00
-1.0000000e+00
-1.0000000e+00
-1.0000000e+00
1.0000000e+00
-1.0000000e+00
1.0000000e+00
1.0000000e+00
-1.0000000e+00
-1.0000000e+00
-1.0000000e+00
-1.0000000e+00
-1.0000000e+00
-1.0000000e+00
1.0000000e+00
-1.0000000e+00
-1.0000000e+00
-1.0000000e+00
-1.0000000e+00
1.0000000e+00
-1.0000000e+00
1.0000000e+00
1.0000000e+00
-1.0000000e+00
1.0000000e+00
-1.0000000e+00
-1.0000000e+00
-1.0000000e+00
-1.0000000e+00
-1.0000000e+00
-1.0000000e+00
-1.0000000e+00
1.0000000e+00
-1.0000000e+00
-1.0000000e+00
-1.0000000e+00
1.0000000e+00
-1.0000000e+00
1.0000000e+00
-1.0000000e+00
-1.0000000e+00
-1.0000000e+00
-1.0000000e+00
-1.0000000e+00
-1.0000000e+00
-1.0000000e+00
1.0000000e+00
1.0000000e+00
-1.0000000e+00
-1.0000000e+00
1.0000000e+00
1.0000000e+00
-1.0000000e+00
-1.0000000e+00
-1.0000000e+00
-1.0000000e+00
-1.0000000e+00
-1.0000000e+00
-1.0000000e+00
-1.0000000e+00
1.0000000e+00
-1.0000000e+00
-1.0000000e+00
-1.0000000e+00
-1.0000000e+00
-1.0000000e+00
-1.0000000e+00
-1.0000000e+00
-1.0000000e+00
-1.0000000e+00
-1.0000000e+00
1.0000000e+00
-1.0000000e+00
-1.0000000e+00
1.0000000e+00
-1.0000000e+00
-1.0000000e+00
-1.0000000e+00
1.0000000e+00
-1.0000000e+00
1.0000000e+00
-1.0000000e+00
-1.0000000e+00
-1.0000000e+00
-1.0000000e+00
1.0000000e+00
-1.0000000e+00
1.0000000e+00
-1.0000000e+00
-1.0000000e+00
-1.0000000e+00
-1.0000000e+00
-1.0000000e+00
-1.0000000e+00
-1.0000000e+00
-1.0000000e+00
1.0000000e+00
-1.0000000e+00
-1.0000000e+00
-1.0000000e+00
-1.0000000e+00
1.0000000e+00
1.0000000e+00
1.0000000e+00
-1.0000000e+00
-1.0000000e+00
-1.0000000e+00
-1.0000000e+00
-1.0000000e+00
-1.0000000e+00
-1.0000000e+00
-1.0000000e+00
-1.0000000e+00
1.0000000e+00
-1.0000000e+00
-1.0000000e+00
-1.0000000e+00
-1.0000000e+00
-1.0000000e+00
1.0000000e+00
-1.0000000e+00
-1.0000000e+00
-1.0000000e+00
-1.0000000e+00
-1.0000000e+00
-1.0000000e+00
-1.0000000e+00
-1.0000000e+00
-1.0000000e+00
1.0000000e+00
-1.0000000e+00
1.0000000e+00
-1.0000000e+00
1.0000000e+00
-1.0000000e+00
-1.0000000e+00
-1.0000000e+00
1.0000000e+00
-1.0000000e+00
-1.0000000e+00
-1.0000000e+00
1.0000000e+00
-1.0000000e+00
-1.0000000e+00
-1.0000000e+00
1.0000000e+00
-1.0000000e+00
-1.0000000e+00
-1.0000000e+00
-1.0000000e+00
-1.0000000e+00
-1.0000000e+00
-1.0000000e+00
-1.0000000e+00
-1.0000000e+00
-1.0000000e+00
-1.0000000e+00
-1.0000000e+00
1.0000000e+00
-1.0000000e+00
1.0000000e+00
-1.0000000e+00
-1.0000000e+00
-1.0000000e+00
1.0000000e+00
-1.0000000e+00
1.0000000e+00
-1.0000000e+00
-1.0000000e+00
-1.0000000e+00
-1.0000000e+00
1.0000000e+00
-1.0000000e+00
1.0000000e+00
-1.0000000e+00
-1.0000000e+00
0.0000000e+00
-1.0000000e+00
0.0000000e+00
-1.0000000e+00
0.0000000e+00
-1.0000000e+00
0.0000000e+00
0.0000000e+00
0.0000000e+00
0.0000000e+00
0.0000000e+00
0.0000000e+00
-1.0000000e+00
0.0000000e+00
1.0000000e+00
-1.0000000e+00
1.0000000e+00
0.0000000e+00
-1.0000000e+00
-1.0000000e+00
-1.0000000e+00
0.0000000e+00
-1.0000000e+00
0.0000000e+00
-1.0000000e+00
-1.0000000e+00
0.0000000e+00
0.0000000e+00
-1.0000000e+00
0.0000000e+00
-1.0000000e+00
-1.0000000e+00
1.0000000e+00
-1.0000000e+00
-1.0000000e+00
0.0000000e+00
1.0000000e+00
1.0000000e+00
-1.0000000e+00
-1.0000000e+00
-1.0000000e+00
-1.0000000e+00
1.0000000e+00
0.0000000e+00
0.0000000e+00
-1.0000000e+00
0.0000000e+00
-1.0000000e+00
0.0000000e+00
0.0000000e+00
0.0000000e+00
1.0000000e+00
-1.0000000e+00
-1.0000000e+00
0.0000000e+00
-1.0000000e+00
-1.0000000e+00
-1.0000000e+00
-1.0000000e+00
0.0000000e+00
0.0000000e+00
-1.0000000e+00
1.0000000e+00
-1.0000000e+00
1.0000000e+00
0.0000000e+00
-1.0000000e+00
1.0000000e+00
-1.0000000e+00
-1.0000000e+00
-1.0000000e+00
-1.0000000e+00
1.0000000e+00
-1.0000000e+00
-1.0000000e+00
-1.0000000e+00
-1.0000000e+00
-1.0000000e+00
-1.0000000e+00
-1.0000000e+00
0.0000000e+00
-1.0000000e+00
-1.0000000e+00
-1.0000000e+00
0.0000000e+00
-1.0000000e+00
-1.0000000e+00
-1.0000000e+00
0.0000000e+00
0.0000000e+00
1.0000000e+00
1.0000000e+00
0.0000000e+00
-1.0000000e+00
0.0000000e+00
1.0000000e+00
-1.0000000e+00
0.0000000e+00
-1.0000000e+00
-1.0000000e+00
0.0000000e+00
-1.0000000e+00
0.0000000e+00
-1.0000000e+00
-1.0000000e+00
1.0000000e+00
-1.0000000e+00
0.0000000e+00
0.0000000e+00
-1.0000000e+00
-1.0000000e+00
-1.0000000e+00
1.0000000e+00
1.0000000e+00
-1.0000000e+00
0.0000000e+00
-1.0000000e+00
0.0000000e+00
-1.0000000e+00
0.0000000e+00
-1.0000000e+00
-1.0000000e+00
1.0000000e+00
-1.0000000e+00
-1.0000000e+00
-1.0000000e+00
0.0000000e+00
-1.0000000e+00
-1.0000000e+00
-1.0000000e+00
-1.0000000e+00
-1.0000000e+00
1.0000000e+00
1.0000000e+00
1.0000000e+00
0.0000000e+00
-1.0000000e+00
-1.0000000e+00
-1.0000000e+00
-1.0000000e+00
-1.0000000e+00
-1.0000000e+00
1.0000000e+00
-1.0000000e+00
-1.0000000e+00
0.0000000e+00
0.0000000e+00
-1.0000000e+00
0.0000000e+00
-1.0000000e+00
1.0000000e+00
-1.0000000e+00
-1.0000000e+00
-1.0000000e+00
1.0000000e+00
0.0000000e+00
-1.0000000e+00
-1.0000000e+00
-1.0000000e+00
-1.0000000e+00
-1.0000000e+00
-1.0000000e+00
1.0000000e+00
-1.0000000e+00
-1.0000000e+00
1.0000000e+00
-1.0000000e+00
-1.0000000e+00
-1.0000000e+00
0.0000000e+00
0.0000000e+00
0.0000000e+00
-1.0000000e+00
0.0000000e+00
-1.0000000e+00
-1.0000000e+00
0.0000000e+00
0.0000000e+00
1.0000000e+00
1.0000000e+00
0.0000000e+00
0.0000000e+00
1.0000000e+00
-1.0000000e+00
-1.0000000e+00
-1.0000000e+00
1.0000000e+00
-1.0000000e+00
0.0000000e+00
-1.0000000e+00
0.0000000e+00
-1.0000000e+00
0.0000000e+00
-1.0000000e+00
-1.0000000e+00
-1.0000000e+00
1.0000000e+00
-1.0000000e+00
-1.0000000e+00
1.0000000e+00
1.0000000e+00
-1.0000000e+00
-1.0000000e+00
1.0000000e+00
0.0000000e+00
-1.0000000e+00
-1.0000000e+00
-1.0000000e+00
-1.0000000e+00
-1.0000000e+00
-1.0000000e+00
1.0000000e+00
-1.0000000e+00
-1.0000000e+00
-1.0000000e+00
-1.0000000e+00
-1.0000000e+00
0.0000000e+00
-1.0000000e+00
1.0000000e+00
1.0000000e+00
0.0000000e+00
-1.0000000e+00
1.0000000e+00
0.0000000e+00
0.0000000e+00
1.0000000e+00
0.0000000e+00
-1.0000000e+00
0.0000000e+00
0.0000000e+00
-1.0000000e+00
0.0000000e+00
-1.0000000e+00
1.0000000e+00
-1.0000000e+00
0.0000000e+00
1.0000000e+00
-1.0000000e+00
0.0000000e+00
1.0000000e+00
1.0000000e+00
-1.0000000e+00
-1.0000000e+00
-1.0000000e+00
1.0000000e+00
-1.0000000e+00
0.0000000e+00
-1.0000000e+00
1.0000000e+00
-1.0000000e+00
-1.0000000e+00
-1.0000000e+00
-1.0000000e+00
1.0000000e+00
-1.0000000e+00
1.0000000e+00
0.0000000e+00
-1.0000000e+00
1.0000000e+00
-1.0000000e+00
0.0000000e+00
1.0000000e+00
1.0000000e+00
-1.0000000e+00
-1.0000000e+00
1.0000000e+00
-1.0000000e+00
0.0000000e+00
1.0000000e+00
1.0000000e+00
-1.0000000e+00
-1.0000000e+00
1.0000000e+00
1.0000000e+00
-1.0000000e+00
1.0000000e+00
-1.0000000e+00
-1.0000000e+00
0.0000000e+00
-1.0000000e+00
-1.0000000e+00
-1.0000000e+00
0.0000000e+00
-1.0000000e+00
-1.0000000e+00
-1.0000000e+00
-1.0000000e+00
1.0000000e+00
-1.0000000e+00
-1.0000000e+00
-1.0000000e+00
-1.0000000e+00
0.0000000e+00
-1.0000000e+00
-1.0000000e+00
-1.0000000e+00
-1.0000000e+00
-1.0000000e+00
-1.0000000e+00
-1.0000000e+00
0.0000000e+00
1.0000000e+00
-1.0000000e+00
1.0000000e+00
-1.0000000e+00
0.0000000e+00
-1.0000000e+00
-1.0000000e+00
-1.0000000e+00
-1.0000000e+00
0.0000000e+00
-1.0000000e+00
1.0000000e+00
0.0000000e+00
-1.0000000e+00
-1.0000000e+00
0.0000000e+00
-1.0000000e+00
-1.0000000e+00
1.0000000e+00
-1.0000000e+00
0.0000000e+00
-1.0000000e+00
1.0000000e+00
0.0000000e+00
-1.0000000e+00
-1.0000000e+00
0.0000000e+00
-1.0000000e+00
0.0000000e+00
-1.0000000e+00
-1.0000000e+00
0.0000000e+00
-1.0000000e+00
-1.0000000e+00
0.0000000e+00
-1.0000000e+00
-1.0000000e+00
1.0000000e+00
-1.0000000e+00
0.0000000e+00
0.0000000e+00
1.0000000e+00
-1.0000000e+00
-1.0000000e+00
-1.0000000e+00
-1.0000000e+00
-1.0000000e+00
1.0000000e+00
0.0000000e+00
-1.0000000e+00
1.0000000e+00
0.0000000e+00
-1.0000000e+00
-1.0000000e+00
-1.0000000e+00
0.0000000e+00
-1.0000000e+00
0.0000000e+00
-1.0000000e+00
-1.0000000e+00
-1.0000000e+00
-1.0000000e+00
-1.0000000e+00
-1.0000000e+00
-1.0000000e+00
1.0000000e+00
-1.0000000e+00
1.0000000e+00
-1.0000000e+00
-1.0000000e+00
1.0000000e+00
-1.0000000e+00
-1.0000000e+00
0.0000000e+00
-1.0000000e+00
-1.0000000e+00
1.0000000e+00
-1.0000000e+00
0.0000000e+00
0.0000000e+00
0.0000000e+00
0.0000000e+00
-1.0000000e+00
-1.0000000e+00
-1.0000000e+00
-1.0000000e+00
-1.0000000e+00
-1.0000000e+00
-1.0000000e+00
-1.0000000e+00
0.0000000e+00
-1.0000000e+00
-1.0000000e+00
0.0000000e+00
-1.0000000e+00
0.0000000e+00
0.0000000e+00
-1.0000000e+00
-1.0000000e+00
-1.0000000e+00
-1.0000000e+00
1.0000000e+00
1.0000000e+00
-1.0000000e+00
-1.0000000e+00
-1.0000000e+00
1.0000000e+00
0.0000000e+00
-1.0000000e+00
-1.0000000e+00
-1.0000000e+00
-1.0000000e+00
0.0000000e+00
-1.0000000e+00
-1.0000000e+00
-1.0000000e+00
-1.0000000e+00
-1.0000000e+00
0.0000000e+00
1.0000000e+00
-1.0000000e+00
-1.0000000e+00
-1.0000000e+00
-1.0000000e+00
-1.0000000e+00
-1.0000000e+00
0.0000000e+00
-1.0000000e+00
-1.0000000e+00
-1.0000000e+00
1.0000000e+00
-1.0000000e+00
-1.0000000e+00
-1.0000000e+00
-1.0000000e+00
0.0000000e+00
1.0000000e+00
-1.0000000e+00
-1.0000000e+00
-1.0000000e+00
0.0000000e+00
1.0000000e+00
-1.0000000e+00
-1.0000000e+00
-1.0000000e+00
0.0000000e+00
-1.0000000e+00
0.0000000e+00
-1.0000000e+00
0.0000000e+00
1.0000000e+00
-1.0000000e+00
-1.0000000e+00
-1.0000000e+00
-1.0000000e+00
0.0000000e+00
-1.0000000e+00
1.0000000e+00
-1.0000000e+00
0.0000000e+00
1.0000000e+00
-1.0000000e+00
0.0000000e+00
-1.0000000e+00
0.0000000e+00
0.0000000e+00
-1.0000000e+00
-1.0000000e+00
-1.0000000e+00
0.0000000e+00
-1.0000000e+00
-1.0000000e+00
-1.0000000e+00
-1.0000000e+00
-1.0000000e+00
1.0000000e+00
-1.0000000e+00
-1.0000000e+00
-1.0000000e+00
0.0000000e+00
0.0000000e+00
0.0000000e+00
0.0000000e+00
0.0000000e+00
-1.0000000e+00
-1.0000000e+00
-1.0000000e+00
0.0000000e+00
-1.0000000e+00
1.0000000e+00
0.0000000e+00
-1.0000000e+00
-1.0000000e+00
0.0000000e+00
0.0000000e+00
0.0000000e+00
-1.0000000e+00
-1.0000000e+00
0.0000000e+00
0.0000000e+00
-1.0000000e+00
1.0000000e+00
-1.0000000e+00
-1.0000000e+00
0.0000000e+00
-1.0000000e+00
-1.0000000e+00
1.0000000e+00
1.0000000e+00
0.0000000e+00
-1.0000000e+00
-1.0000000e+00
-1.0000000e+00
0.0000000e+00
-1.0000000e+00
0.0000000e+00
-1.0000000e+00
-1.0000000e+00
0.0000000e+00
-1.0000000e+00
-1.0000000e+00
-1.0000000e+00
0.0000000e+00
-1.0000000e+00
-1.0000000e+00
-1.0000000e+00
0.0000000e+00
-1.0000000e+00
0.0000000e+00
-1.0000000e+00
-1.0000000e+00
-1.0000000e+00
-1.0000000e+00
-1.0000000e+00
-1.0000000e+00
-1.0000000e+00
-1.0000000e+00
-1.0000000e+00
0.0000000e+00
-1.0000000e+00
-1.0000000e+00
-1.0000000e+00
-1.0000000e+00
-1.0000000e+00
0.0000000e+00
-1.0000000e+00
-1.0000000e+00
-1.0000000e+00
-1.0000000e+00
-1.0000000e+00
-1.0000000e+00
0.0000000e+00
-1.0000000e+00
0.0000000e+00
-1.0000000e+00
-1.0000000e+00
-1.0000000e+00
-1.0000000e+00
-1.0000000e+00
-1.0000000e+00
-1.0000000e+00
0.0000000e+00
-1.0000000e+00
-1.0000000e+00
-1.0000000e+00
-1.0000000e+00
-1.0000000e+00
-1.0000000e+00
-1.0000000e+00
0.0000000e+00
-1.0000000e+00
-1.0000000e+00
-1.0000000e+00
-1.0000000e+00
-1.0000000e+00
-1.0000000e+00
0.0000000e+00
0.0000000e+00
-1.0000000e+00
-1.0000000e+00
-1.0000000e+00
-1.0000000e+00
-1.0000000e+00
-1.0000000e+00
-1.0000000e+00
-1.0000000e+00
-1.0000000e+00
0.0000000e+00
-1.0000000e+00
-1.0000000e+00
-1.0000000e+00
-1.0000000e+00
-1.0000000e+00
-1.0000000e+00
-1.0000000e+00
-1.0000000e+00
0.0000000e+00
-1.0000000e+00
0.0000000e+00
0.0000000e+00
-1.0000000e+00
0.0000000e+00
-1.0000000e+00
-1.0000000e+00
0.0000000e+00
-1.0000000e+00
0.0000000e+00
-1.0000000e+00
0.0000000e+00
-1.0000000e+00
-1.0000000e+00
-1.0000000e+00
-1.0000000e+00
-1.0000000e+00
-1.0000000e+00
0.0000000e+00
-1.0000000e+00
-1.0000000e+00
-1.0000000e+00
-1.0000000e+00
-1.0000000e+00
0.0000000e+00
-1.0000000e+00
-1.0000000e+00
-1.0000000e+00
-1.0000000e+00
0.0000000e+00
-1.0000000e+00
-1.0000000e+00
-1.0000000e+00
-1.0000000e+00
0.0000000e+00
-1.0000000e+00
0.0000000e+00
-1.0000000e+00
-1.0000000e+00
-1.0000000e+00
-1.0000000e+00
-1.0000000e+00
-1.0000000e+00
-1.0000000e+00
-1.0000000e+00
0.0000000e+00
0.0000000e+00
-1.0000000e+00
-1.0000000e+00
-1.0000000e+00
-1.0000000e+00
0.0000000e+00
-1.0000000e+00
-1.0000000e+00
0.0000000e+00
-1.0000000e+00
-1.0000000e+00
-1.0000000e+00
-1.0000000e+00
-1.0000000e+00
-1.0000000e+00
-1.0000000e+00
-1.0000000e+00
-1.0000000e+00
0.0000000e+00
-1.0000000e+00
-1.0000000e+00
-1.0000000e+00
-1.0000000e+00
-1.0000000e+00
-1.0000000e+00
-1.0000000e+00
-1.0000000e+00
-1.0000000e+00
-1.0000000e+00
0.0000000e+00
-1.0000000e+00
0.0000000e+00
-1.0000000e+00
0.0000000e+00
-1.0000000e+00
-1.0000000e+00
0.0000000e+00
-1.0000000e+00
-1.0000000e+00
-1.0000000e+00
-1.0000000e+00
-1.0000000e+00
-1.0000000e+00
-1.0000000e+00
0.0000000e+00
-1.0000000e+00
0.0000000e+00
-1.0000000e+00
-1.0000000e+00
-1.0000000e+00
-1.0000000e+00
-1.0000000e+00
-1.0000000e+00
0.0000000e+00
-1.0000000e+00
-1.0000000e+00
-1.0000000e+00
-1.0000000e+00
-1.0000000e+00
-1.0000000e+00
-1.0000000e+00
-1.0000000e+00
-1.0000000e+00
0.0000000e+00
-1.0000000e+00
-1.0000000e+00
-1.0000000e+00
-1.0000000e+00
-1.0000000e+00
-1.0000000e+00
-1.0000000e+00
0.0000000e+00
-1.0000000e+00
-1.0000000e+00
-1.0000000e+00
-1.0000000e+00
0.0000000e+00
-1.0000000e+00
-1.0000000e+00
-1.0000000e+00
-1.0000000e+00
0.0000000e+00
-1.0000000e+00
-1.0000000e+00
-1.0000000e+00
-1.0000000e+00
-1.0000000e+00
-1.0000000e+00
-1.0000000e+00
0.0000000e+00
-1.0000000e+00
0.0000000e+00
-1.0000000e+00
-1.0000000e+00
0.0000000e+00
-1.0000000e+00
-1.0000000e+00
-1.0000000e+00
-1.0000000e+00
-1.0000000e+00
0.0000000e+00
-1.0000000e+00
-1.0000000e+00
-1.0000000e+00
-1.0000000e+00
-1.0000000e+00
-1.0000000e+00
-1.0000000e+00
0.0000000e+00
0.0000000e+00
-1.0000000e+00
0.0000000e+00
-1.0000000e+00
-1.0000000e+00
-1.0000000e+00
-1.0000000e+00
-1.0000000e+00
-1.0000000e+00
-1.0000000e+00
-1.0000000e+00
0.0000000e+00
-1.0000000e+00
-1.0000000e+00
-1.0000000e+00
-1.0000000e+00
-1.0000000e+00
-1.0000000e+00
-1.0000000e+00
0.0000000e+00
-1.0000000e+00
-1.0000000e+00
-1.0000000e+00
-1.0000000e+00
-1.0000000e+00
-1.0000000e+00
-1.0000000e+00
-1.0000000e+00
-1.0000000e+00
0.0000000e+00
0.0000000e+00
-1.0000000e+00
-1.0000000e+00
0.0000000e+00
-1.0000000e+00
-1.0000000e+00
-1.0000000e+00
-1.0000000e+00
-1.0000000e+00
0.0000000e+00
-1.0000000e+00
-1.0000000e+00
-1.0000000e+00
-1.0000000e+00
0.0000000e+00
-1.0000000e+00
-1.0000000e+00
-1.0000000e+00
0.0000000e+00
-1.0000000e+00
-1.0000000e+00
-1.0000000e+00
-1.0000000e+00
-1.0000000e+00
-1.0000000e+00
-1.0000000e+00
-1.0000000e+00
-1.0000000e+00
0.0000000e+00
-1.0000000e+00
-1.0000000e+00
-1.0000000e+00
-1.0000000e+00
-1.0000000e+00
0.0000000e+00
-1.0000000e+00
-1.0000000e+00
-1.0000000e+00
-1.0000000e+00
-1.0000000e+00
-1.0000000e+00
-1.0000000e+00
-1.0000000e+00
-1.0000000e+00
-1.0000000e+00
-1.0000000e+00
0.0000000e+00
0.0000000e+00
-1.0000000e+00
-1.0000000e+00
0.0000000e+00
-1.0000000e+00
-1.0000000e+00
-1.0000000e+00
0.0000000e+00
-1.0000000e+00
-1.0000000e+00
-1.0000000e+00
0.0000000e+00
-1.0000000e+00
-1.0000000e+00
-1.0000000e+00
-1.0000000e+00
-1.0000000e+00
0.0000000e+00
-1.0000000e+00
-1.0000000e+00
-1.0000000e+00
-1.0000000e+00
-1.0000000e+00
-1.0000000e+00
-1.0000000e+00
-1.0000000e+00
-1.0000000e+00
-1.0000000e+00
-1.0000000e+00
-1.0000000e+00
-1.0000000e+00
-1.0000000e+00
0.0000000e+00
-1.0000000e+00
-1.0000000e+00
0.0000000e+00
-1.0000000e+00
-1.0000000e+00
-1.0000000e+00
-1.0000000e+00
0.0000000e+00
-1.0000000e+00
-1.0000000e+00
-1.0000000e+00
-1.0000000e+00
-1.0000000e+00
-1.0000000e+00
-1.0000000e+00
-1.0000000e+00
-1.0000000e+00
-1.0000000e+00
0.0000000e+00
0.0000000e+00
-1.0000000e+00
-1.0000000e+00
-1.0000000e+00
0.0000000e+00
0.0000000e+00
-1.0000000e+00
-1.0000000e+00
0.0000000e+00
-1.0000000e+00
-1.0000000e+00
0.0000000e+00
0.0000000e+00
-1.0000000e+00
0.0000000e+00
-1.0000000e+00
0.0000000e+00
-1.0000000e+00
0.0000000e+00
-1.0000000e+00
-1.0000000e+00
-1.0000000e+00
-1.0000000e+00
-1.0000000e+00
-1.0000000e+00
-1.0000000e+00
0.0000000e+00
-1.0000000e+00
-1.0000000e+00
-1.0000000e+00
-1.0000000e+00
-1.0000000e+00
-1.0000000e+00
-1.0000000e+00
-1.0000000e+00
-1.0000000e+00
-1.0000000e+00
0.0000000e+00
-1.0000000e+00
-1.0000000e+00
-1.0000000e+00
-1.0000000e+00
-1.0000000e+00
-1.0000000e+00
-1.0000000e+00
-1.0000000e+00
0.0000000e+00
0.0000000e+00
0.0000000e+00
-1.0000000e+00
-1.0000000e+00
-1.0000000e+00
-1.0000000e+00
-1.0000000e+00
0.0000000e+00
-1.0000000e+00
-1.0000000e+00
0.0000000e+00
-1.0000000e+00
-1.0000000e+00
-1.0000000e+00
0.0000000e+00
-1.0000000e+00
0.0000000e+00
-1.0000000e+00
-1.0000000e+00
0.0000000e+00
0.0000000e+00
-1.0000000e+00
-1.0000000e+00
0.0000000e+00
-1.0000000e+00
-1.0000000e+00
-1.0000000e+00
0.0000000e+00
-1.0000000e+00
0.0000000e+00
-1.0000000e+00
-1.0000000e+00
-1.0000000e+00
-1.0000000e+00
-1.0000000e+00
0.0000000e+00
0.0000000e+00
-1.0000000e+00
-1.0000000e+00
-1.0000000e+00
0.0000000e+00
-1.0000000e+00
-1.0000000e+00
-1.0000000e+00
-1.0000000e+00
-1.0000000e+00
-1.0000000e+00
-1.0000000e+00
-1.0000000e+00
0.0000000e+00
-1.0000000e+00
-1.0000000e+00
0.0000000e+00
-1.0000000e+00
-1.0000000e+00
-1.0000000e+00
-1.0000000e+00
-1.0000000e+00
0.0000000e+00
0.0000000e+00
-1.0000000e+00
-1.0000000e+00
-1.0000000e+00
-1.0000000e+00
0.0000000e+00
-1.0000000e+00
-1.0000000e+00
-1.0000000e+00
-1.0000000e+00
0.0000000e+00
0.0000000e+00
-1.0000000e+00
-1.0000000e+00
-1.0000000e+00
0.0000000e+00
-1.0000000e+00
-1.0000000e+00
-1.0000000e+00
-1.0000000e+00
0.0000000e+00
-1.0000000e+00
-1.0000000e+00
-1.0000000e+00
-1.0000000e+00
-1.0000000e+00
-1.0000000e+00
-1.0000000e+00
0.0000000e+00
0.0000000e+00
-1.0000000e+00
0.0000000e+00
0.0000000e+00
-1.0000000e+00
-1.0000000e+00
-1.0000000e+00
0.0000000e+00
-1.0000000e+00
-1.0000000e+00
-1.0000000e+00
-1.0000000e+00
-1.0000000e+00
-1.0000000e+00
-1.0000000e+00
0.0000000e+00
-1.0000000e+00
-1.0000000e+00
-1.0000000e+00
-1.0000000e+00
-1.0000000e+00
-1.0000000e+00
0.0000000e+00
-1.0000000e+00
-1.0000000e+00
-1.0000000e+00
-1.0000000e+00
-1.0000000e+00
0.0000000e+00
-1.0000000e+00
0.0000000e+00
-1.0000000e+00
0.0000000e+00
0.0000000e+00
-1.0000000e+00
-1.0000000e+00
-1.0000000e+00
-1.0000000e+00
0.0000000e+00
-1.0000000e+00
-1.0000000e+00
-1.0000000e+00
-1.0000000e+00
-1.0000000e+00
-1.0000000e+00
-1.0000000e+00
0.0000000e+00
0.0000000e+00
-1.0000000e+00
-1.0000000e+00
-1.0000000e+00
0.0000000e+00
-1.0000000e+00
-1.0000000e+00
-1.0000000e+00
-1.0000000e+00
-1.0000000e+00
-1.0000000e+00
0.0000000e+00
0.0000000e+00
-1.0000000e+00
0.0000000e+00
-1.0000000e+00
-1.0000000e+00
0.0000000e+00
0.0000000e+00
-1.0000000e+00
-1.0000000e+00
-1.0000000e+00
-1.0000000e+00
-1.0000000e+00
-1.0000000e+00
-1.0000000e+00
-1.0000000e+00
-1.0000000e+00
-1.0000000e+00
-1.0000000e+00
0.0000000e+00
0.0000000e+00
-1.0000000e+00
-1.0000000e+00
-1.0000000e+00
0.0000000e+00
-1.0000000e+00
-1.0000000e+00
0.0000000e+00
-1.0000000e+00
-1.0000000e+00
-1.0000000e+00
-1.0000000e+00
-1.0000000e+00
-1.0000000e+00
0.0000000e+00
-1.0000000e+00
-1.0000000e+00
-1.0000000e+00
0.0000000e+00
-1.0000000e+00
0.0000000e+00
0.0000000e+00
-1.0000000e+00
-1.0000000e+00
-1.0000000e+00
-1.0000000e+00
-1.0000000e+00
-1.0000000e+00
-1.0000000e+00
0.0000000e+00
0.0000000e+00
-1.0000000e+00
0.0000000e+00
-1.0000000e+00
-1.0000000e+00
0.0000000e+00
-1.0000000e+00
-1.0000000e+00
0.0000000e+00
-1.0000000e+00
-1.0000000e+00
-1.0000000e+00
0.0000000e+00
-1.0000000e+00
-1.0000000e+00
-1.0000000e+00
0.0000000e+00
-1.0000000e+00
-1.0000000e+00
-1.0000000e+00
-1.0000000e+00
0.0000000e+00
-1.0000000e+00
-1.0000000e+00
-1.0000000e+00
-1.0000000e+00
-1.0000000e+00
-1.0000000e+00
-1.0000000e+00
0.0000000e+00
-1.0000000e+00
-1.0000000e+00
-1.0000000e+00
-1.0000000e+00
-1.0000000e+00
-1.0000000e+00
0.0000000e+00
-1.0000000e+00
-1.0000000e+00
-1.0000000e+00
0.0000000e+00
-1.0000000e+00
-1.0000000e+00
0.0000000e+00
-1.0000000e+00
-1.0000000e+00
0.0000000e+00
-1.0000000e+00
0.0000000e+00
-1.0000000e+00
-1.0000000e+00
-1.0000000e+00
-1.0000000e+00
-1.0000000e+00
-1.0000000e+00
-1.0000000e+00
0.0000000e+00
-1.0000000e+00
-1.0000000e+00
-1.0000000e+00
-1.0000000e+00
-1.0000000e+00
0.0000000e+00
-1.0000000e+00
-1.0000000e+00
-1.0000000e+00
-1.0000000e+00
-1.0000000e+00
0.0000000e+00
-1.0000000e+00
0.0000000e+00
-1.0000000e+00
-1.0000000e+00
0.0000000e+00
-1.0000000e+00
0.0000000e+00
-1.0000000e+00
-1.0000000e+00
-1.0000000e+00
-1.0000000e+00
-1.0000000e+00
-1.0000000e+00
0.0000000e+00
-1.0000000e+00
0.0000000e+00
-1.0000000e+00
-1.0000000e+00
0.0000000e+00
-1.0000000e+00
-1.0000000e+00
-1.0000000e+00
-1.0000000e+00
-1.0000000e+00
0.0000000e+00
-1.0000000e+00
-1.0000000e+00
0.0000000e+00
-1.0000000e+00
-1.0000000e+00
-1.0000000e+00
-1.0000000e+00
0.0000000e+00
-1.0000000e+00
-1.0000000e+00
-1.0000000e+00
-1.0000000e+00
-1.0000000e+00
0.0000000e+00
-1.0000000e+00
-1.0000000e+00
0.0000000e+00
0.0000000e+00
0.0000000e+00
-1.0000000e+00
-1.0000000e+00
-1.0000000e+00
-1.0000000e+00
-1.0000000e+00
-1.0000000e+00
-1.0000000e+00
0.0000000e+00
-1.0000000e+00
-1.0000000e+00
-1.0000000e+00
-1.0000000e+00
-1.0000000e+00
0.0000000e+00
-1.0000000e+00
0.0000000e+00
-1.0000000e+00
0.0000000e+00
0.0000000e+00
-1.0000000e+00
-1.0000000e+00
-1.0000000e+00
-1.0000000e+00
-1.0000000e+00
-1.0000000e+00
-1.0000000e+00
-1.0000000e+00
-1.0000000e+00
-1.0000000e+00
-1.0000000e+00
0.0000000e+00
0.0000000e+00
0.0000000e+00
-1.0000000e+00
-1.0000000e+00
0.0000000e+00
-1.0000000e+00
-1.0000000e+00
-1.0000000e+00
0.0000000e+00
-1.0000000e+00
0.0000000e+00
-1.0000000e+00
-1.0000000e+00
-1.0000000e+00
-1.0000000e+00
-1.0000000e+00
-1.0000000e+00
-1.0000000e+00
-1.0000000e+00
0.0000000e+00
-1.0000000e+00
-1.0000000e+00
-1.0000000e+00
0.0000000e+00
-1.0000000e+00
-1.0000000e+00
0.0000000e+00
-1.0000000e+00
-1.0000000e+00
-1.0000000e+00
-1.0000000e+00
0.0000000e+00
-1.0000000e+00
0.0000000e+00
-1.0000000e+00
-1.0000000e+00
-1.0000000e+00
-1.0000000e+00
-1.0000000e+00
0.0000000e+00
-1.0000000e+00
-1.0000000e+00
0.0000000e+00
-1.0000000e+00
-1.0000000e+00
-1.0000000e+00
-1.0000000e+00
-1.0000000e+00
-1.0000000e+00
0.0000000e+00
0.0000000e+00
0.0000000e+00
-1.0000000e+00
-1.0000000e+00
-1.0000000e+00
-1.0000000e+00
-1.0000000e+00
-1.0000000e+00
0.0000000e+00
0.0000000e+00
-1.0000000e+00
-1.0000000e+00
-1.0000000e+00
0.0000000e+00
0.0000000e+00
-1.0000000e+00
-1.0000000e+00
-1.0000000e+00
0.0000000e+00
0.0000000e+00
-1.0000000e+00
-1.0000000e+00
-1.0000000e+00
-1.0000000e+00
-1.0000000e+00
-1.0000000e+00
-1.0000000e+00
-1.0000000e+00
-1.0000000e+00
-1.0000000e+00
-1.0000000e+00
-1.0000000e+00
-1.0000000e+00
0.0000000e+00
-1.0000000e+00
-1.0000000e+00
-1.0000000e+00
0.0000000e+00
-1.0000000e+00
-1.0000000e+00
-1.0000000e+00
0.0000000e+00
0.0000000e+00
0.0000000e+00
-1.0000000e+00
-1.0000000e+00
-1.0000000e+00
-1.0000000e+00
-1.0000000e+00
-1.0000000e+00
0.0000000e+00
-1.0000000e+00
0.0000000e+00
-1.0000000e+00
-1.0000000e+00
-1.0000000e+00
-1.0000000e+00
-1.0000000e+00
-1.0000000e+00
-1.0000000e+00
-1.0000000e+00
-1.0000000e+00
0.0000000e+00
0.0000000e+00
-1.0000000e+00
-1.0000000e+00
-1.0000000e+00
-1.0000000e+00
-1.0000000e+00
-1.0000000e+00
0.0000000e+00
-1.0000000e+00
-1.0000000e+00
0.0000000e+00
-1.0000000e+00
0.0000000e+00
0.0000000e+00
0.0000000e+00
-1.0000000e+00
-1.0000000e+00
-1.0000000e+00
-1.0000000e+00
0.0000000e+00
-1.0000000e+00
0.0000000e+00
-1.0000000e+00
-1.0000000e+00
-1.0000000e+00
-1.0000000e+00
-1.0000000e+00
-1.0000000e+00
-1.0000000e+00
-1.0000000e+00
-1.0000000e+00
-1.0000000e+00
-1.0000000e+00
-1.0000000e+00
-1.0000000e+00
0.0000000e+00
-1.0000000e+00
-1.0000000e+00
-1.0000000e+00
-1.0000000e+00
-1.0000000e+00
-1.0000000e+00
0.0000000e+00
-1.0000000e+00
0.0000000e+00
-1.0000000e+00
0.0000000e+00
0.0000000e+00
-1.0000000e+00
-1.0000000e+00
-1.0000000e+00
-1.0000000e+00
-1.0000000e+00
-1.0000000e+00
-1.0000000e+00
0.0000000e+00
-1.0000000e+00
-1.0000000e+00
0.0000000e+00
-1.0000000e+00
-1.0000000e+00
-1.0000000e+00
-1.0000000e+00
-1.0000000e+00
-1.0000000e+00
-1.0000000e+00
0.0000000e+00
-1.0000000e+00
-1.0000000e+00
0.0000000e+00
-1.0000000e+00
-1.0000000e+00
0.0000000e+00
0.0000000e+00
-1.0000000e+00
-1.0000000e+00
0.0000000e+00
0.0000000e+00
-1.0000000e+00
-1.0000000e+00
-1.0000000e+00
-1.0000000e+00
-1.0000000e+00
0.0000000e+00
-1.0000000e+00
-1.0000000e+00
-1.0000000e+00
-1.0000000e+00
-1.0000000e+00
0.0000000e+00
-1.0000000e+00
0.0000000e+00
-1.0000000e+00
-1.0000000e+00
-1.0000000e+00
-1.0000000e+00
-1.0000000e+00
-1.0000000e+00
0.0000000e+00
-1.0000000e+00
-1.0000000e+00
-1.0000000e+00
-1.0000000e+00
-1.0000000e+00
-1.0000000e+00
-1.0000000e+00
0.0000000e+00
-1.0000000e+00
-1.0000000e+00
0.0000000e+00
-1.0000000e+00
0.0000000e+00
-1.0000000e+00
0.0000000e+00
-1.0000000e+00
-1.0000000e+00
-1.0000000e+00
-1.0000000e+00
-1.0000000e+00
-1.0000000e+00
-1.0000000e+00
-1.0000000e+00
-1.0000000e+00
0.0000000e+00
-1.0000000e+00
-1.0000000e+00
-1.0000000e+00
-1.0000000e+00
-1.0000000e+00
-1.0000000e+00
-1.0000000e+00
-1.0000000e+00
0.0000000e+00
-1.0000000e+00
-1.0000000e+00
-1.0000000e+00
-1.0000000e+00
-1.0000000e+00
0.0000000e+00
-1.0000000e+00
-1.0000000e+00
0.0000000e+00
-1.0000000e+00
0.0000000e+00
-1.0000000e+00
-1.0000000e+00
0.0000000e+00
0.0000000e+00
-1.0000000e+00
-1.0000000e+00
-1.0000000e+00
-1.0000000e+00
0.0000000e+00
0.0000000e+00
-1.0000000e+00
0.0000000e+00
-1.0000000e+00
-1.0000000e+00
-1.0000000e+00
0.0000000e+00
-1.0000000e+00
-1.0000000e+00
-1.0000000e+00
-1.0000000e+00
-1.0000000e+00
-1.0000000e+00
0.0000000e+00
-1.0000000e+00
-1.0000000e+00
0.0000000e+00
-1.0000000e+00
-1.0000000e+00
-1.0000000e+00
0.0000000e+00
-1.0000000e+00
-1.0000000e+00
-1.0000000e+00
-1.0000000e+00
-1.0000000e+00
0.0000000e+00
0.0000000e+00
-1.0000000e+00
0.0000000e+00
-1.0000000e+00
-1.0000000e+00
-1.0000000e+00
0.0000000e+00
-1.0000000e+00
-1.0000000e+00
-1.0000000e+00
-1.0000000e+00
-1.0000000e+00
-1.0000000e+00
0.0000000e+00
0.0000000e+00
-1.0000000e+00
-1.0000000e+00
0.0000000e+00
0.0000000e+00
-1.0000000e+00
-1.0000000e+00
-1.0000000e+00
0.0000000e+00
-1.0000000e+00
0.0000000e+00
-1.0000000e+00
0.0000000e+00
-1.0000000e+00
-1.0000000e+00
-1.0000000e+00
-1.0000000e+00
0.0000000e+00
-1.0000000e+00
-1.0000000e+00
0.0000000e+00
-1.0000000e+00
0.0000000e+00
0.0000000e+00
0.0000000e+00
-1.0000000e+00
-1.0000000e+00
-1.0000000e+00
-1.0000000e+00
0.0000000e+00
0.0000000e+00
0.0000000e+00
0.0000000e+00
-1.0000000e+00
-1.0000000e+00
-1.0000000e+00
0.0000000e+00
-1.0000000e+00
0.0000000e+00
0.0000000e+00
-1.0000000e+00
-1.0000000e+00
-1.0000000e+00
0.0000000e+00
-1.0000000e+00
0.0000000e+00
0.0000000e+00
-1.0000000e+00
0.0000000e+00
-1.0000000e+00
0.0000000e+00
0.0000000e+00
-1.0000000e+00
-1.0000000e+00
0.0000000e+00
0.0000000e+00
0.0000000e+00
0.0000000e+00
-1.0000000e+00
0.0000000e+00
0.0000000e+00
0.0000000e+00
0.0000000e+00
0.0000000e+00
0.0000000e+00
0.0000000e+00
-1.0000000e+00
0.0000000e+00
-1.0000000e+00
0.0000000e+00
0.0000000e+00
0.0000000e+00
-1.0000000e+00
0.0000000e+00
0.0000000e+00
0.0000000e+00
0.0000000e+00
0.0000000e+00
0.0000000e+00
-1.0000000e+00
0.0000000e+00
0.0000000e+00
0.0000000e+00
0.0000000e+00
CELL_DATA 8485
FIELD FieldData 0
