# vtk DataFile Version 4.0
vtk output
ASCII
DATASET UNSTRUCTURED_GRID
POINTS 8 float
0.0000000e+00 0.0000000e+00 0.0000000e+00 
1.0000000e+00 0.0000000e+00 0.0000000e+00 
1.0000000e+00 1.0000000e+00 0.0000000e+00 
0.0000000e+00 1.0000000e+00 0.0000000e+00 
0.0000000e+00 1.0010000e+00 0.0000000e+00 
1.0000000e+00 1.0010000e+00 0.0000000e+00 
1.0000000e+00 2.0000000e+00 0.0000000e+00 
0.0000000e+00 2.0000000e+00 0.0000000e+00 

CELLS 2 10
4 0 1 2 3
4 4 5 6 7

CELL_TYPES 2
9
9
POINT_DATA 8
FIELD FieldData 14
DISPLACEMENT 3 8  float
0.0000000e+00 0.0000000e+00 0.0000000e+00 
0.0000000e+00 0.0000000e+00 0.0000000e+00 
6.8423087e-03 -2.0869598e-02 0.0000000e+00 
-4.1957707e-03 -1.7895741e-02 0.0000000e+00 
3.2701898e-02 -1.9009190e-02 0.0000000e+00 
4.3819152e-02 -2.1982960e-02 0.0000000e+00 
3.9999999e-02 -3.9999999e-02 0.0000000e+00 
3.9999999e-02 -3.9999999e-02 0.0000000e+00 
NORMAL 3 8  float
0.0000000e+00 0.0000000e+00 0.0000000e+00 
0.0000000e+00 0.0000000e+00 0.0000000e+00 
2.8411255e-03 9.9999595e-01 0.0000000e+00 
2.8411255e-03 9.9999595e-01 0.0000000e+00 
-2.8408689e-03 -9.9999595e-01 0.0000000e+00 
-2.8408689e-03 -9.9999595e-01 0.0000000e+00 
0.0000000e+00 0.0000000e+00 0.0000000e+00 
0.0000000e+00 0.0000000e+00 0.0000000e+00 
REACTION 3 8  float
6.5467866e+08 2.2375196e+09 0.0000000e+00 
-6.4099341e+08 2.3983168e+09 0.0000000e+00 
1.9916623e+04 7.3813830e+06 0.0000000e+00 
2.9994918e+04 9.3021190e+06 0.0000000e+00 
-2.8625188e+04 -9.1954550e+06 0.0000000e+00 
-2.1286354e+04 -7.4880475e+06 0.0000000e+00 
-6.3377824e+08 -2.2460636e+09 0.0000000e+00 
6.7037338e+08 -2.4404508e+09 0.0000000e+00 
VECTOR_LAGRANGE_MULTIPLIER 3 8  float
0.0000000e+00 0.0000000e+00 0.0000000e+00 
0.0000000e+00 0.0000000e+00 0.0000000e+00 
0.0000000e+00 6.8423087e-03 -2.0869598e-02 
0.0000000e+00 -4.1957707e-03 -1.7895741e-02 
0.0000000e+00 3.2701898e-02 -1.9009190e-02 
0.0000000e+00 4.3819152e-02 -2.1982960e-02 
0.0000000e+00 3.9999999e-02 -3.9999999e-02 
0.0000000e+00 3.9999999e-02 -3.9999999e-02 
WEIGHTED_GAP 1 8  float
0.0000000e+00
0.0000000e+00
-2.3278121e-06
-2.3128398e-06
0.0000000e+00
0.0000000e+00
0.0000000e+00
0.0000000e+00
WEIGHTED_SLIP 3 8  float
0.0000000e+00 0.0000000e+00 0.0000000e+00 
0.0000000e+00 0.0000000e+00 0.0000000e+00 
1.8488435e-02 -5.2528176e-05 0.0000000e+00 
1.8448846e-02 -5.2415697e-05 0.0000000e+00 
0.0000000e+00 0.0000000e+00 0.0000000e+00 
0.0000000e+00 0.0000000e+00 0.0000000e+00 
0.0000000e+00 0.0000000e+00 0.0000000e+00 
0.0000000e+00 0.0000000e+00 0.0000000e+00 
AUGMENTED_NORMAL_CONTACT_PRESSURE 1 8  float
0.0000000e+00
0.0000000e+00
-4.8162432e+09
-4.7852657e+09
0.0000000e+00
0.0000000e+00
0.0000000e+00
0.0000000e+00
AUGMENTED_TANGENT_CONTACT_PRESSURE 3 8  float
0.0000000e+00 0.0000000e+00 0.0000000e+00 
0.0000000e+00 0.0000000e+00 0.0000000e+00 
-4.8162236e+07 1.3683550e+05 -0.0000000e+00 
-4.7852464e+07 1.3595539e+05 -0.0000000e+00 
0.0000000e+00 0.0000000e+00 0.0000000e+00 
0.0000000e+00 0.0000000e+00 0.0000000e+00 
0.0000000e+00 0.0000000e+00 0.0000000e+00 
0.0000000e+00 0.0000000e+00 0.0000000e+00 
TANGENT_XI 3 8  float
0.0000000e+00 0.0000000e+00 0.0000000e+00 
0.0000000e+00 0.0000000e+00 0.0000000e+00 
9.9999595e-01 -2.8411255e-03 0.0000000e+00 
9.9999595e-01 -2.8411255e-03 0.0000000e+00 
0.0000000e+00 0.0000000e+00 0.0000000e+00 
0.0000000e+00 0.0000000e+00 0.0000000e+00 
0.0000000e+00 0.0000000e+00 0.0000000e+00 
0.0000000e+00 0.0000000e+00 0.0000000e+00 
VON_MISES_STRESS 1 8  float
4.3378545e+09
4.5694817e+09
4.5360727e+09
4.3334395e+09
4.5706747e+09
4.3610998e+09
4.3675018e+09
4.6059781e+09
ACTIVE 1 8  float
-1.0000000e+00
-1.0000000e+00
1.0000000e+00
1.0000000e+00
-1.0000000e+00
-1.0000000e+00
-1.0000000e+00
-1.0000000e+00
MASTER 1 8  float
0.0000000e+00
0.0000000e+00
0.0000000e+00
0.0000000e+00
1.0000000e+00
1.0000000e+00
-1.0000000e+00
-1.0000000e+00
SLAVE 1 8  float
1.0000000e+00
1.0000000e+00
1.0000000e+00
1.0000000e+00
0.0000000e+00
0.0000000e+00
-1.0000000e+00
-1.0000000e+00
SLIP 1 8  float
-1.0000000e+00
-1.0000000e+00
1.0000000e+00
1.0000000e+00
0.0000000e+00
0.0000000e+00
-1.0000000e+00
-1.0000000e+00
CELL_DATA 2
FIELD FieldData 0
